$*$$$$$$$$$$$$$$$$$$$$$$$$$$$$$$$$$$$$$$$$$$$$$$$$$$$$$$$$$$$$$$$$$
$*
$*                    Simcenter v1876.0.0.1702 Translator
$*                    for Simcenter Nastran version 2019.2
$*
$*             FEM FILE: C:\Users\stef_\Documents\Universiteit\Academiejaar 2019-2020\Semester 2\4-Composter\AS\as voor het prototype_fem3.fem
$*             SIM FILE: C:\Users\stef_\Documents\Universiteit\Academiejaar 2019-2020\Semester 2\4-Composter\AS\as voor het prototype_sim3.sim
$*        ANALYSIS TYPE: Structural
$*        SOLUTION NAME: Solution 1
$*        SOLUTION TYPE: SOL 101 Linear Statics - Global Constraints
$*
$*    SOLVER INPUT FILE: as_voor_het_prototype_sim3-solution_1.dat
$*        CREATION DATE: 18-May-2020
$*        CREATION TIME: 11:35:56
$*             HOSTNAME: DESKTOP-L0B7HOS
$*      NASTRAN LICENSE: Desktop Bundle
$*
$*                UNITS: mm (milli-newton)
$*                      ... LENGTH : mm
$*                      ... TIME   : sec
$*                      ... MASS   : kilogram (kg)
$*                      ... TEMPERATURE : deg Celsius
$*                      ... FORCE  : milli-newton
$*                      ... THERMAL ENERGY : mN-mm (micro-joule)
$*
$* IMPORTANT NOTE:
$*     This banner was generated by Simcenter and altering this 
$*     information may compromise the pre and post processing of results
$*
$*$$$$$$$$$$$$$$$$$$$$$$$$$$$$$$$$$$$$$$$$$$$$$$$$$$$$$$$$$$$$$$$$$
$*
$*$$$$$$$$$$$$$$$$$$$$$$$$$$$$$$$$$$$
$*
$* FILE MANAGEMENT
$*
$*$$$$$$$$$$$$$$$$$$$$$$$$$$$$$$$$$$$
$*
$*
$*$$$$$$$$$$$$$$$$$$$$$$$$$$$$$$$$$$$
$*
$* EXECUTIVE CONTROL
$*
$*$$$$$$$$$$$$$$$$$$$$$$$$$$$$$$$$$$$
$*
ID,NASTRAN,as_voor_het_prototype_sim3-solution_1
SOL 101
CEND
$*
$*$$$$$$$$$$$$$$$$$$$$$$$$$$$$$$$$$$$
$*
$* CASE CONTROL
$*
$*$$$$$$$$$$$$$$$$$$$$$$$$$$$$$$$$$$$
$*
ECHO = NONE
SPC = 1
OUTPUT
DISPLACEMENT(PLOT,REAL) = ALL
SPCFORCES(PLOT,REAL) = ALL
STRESS(PLOT,REAL,VONMISES,CENTER) = ALL
$*  Step: Subcase - Static Loads 1
SUBCASE 1
  LABEL = Subcase - Static Loads 1
  LOAD = 101
$*
$*$$$$$$$$$$$$$$$$$$$$$$$$$$$$$$$$$$$
$*
$* BULK DATA
$*
$*$$$$$$$$$$$$$$$$$$$$$$$$$$$$$$$$$$$
$*
BEGIN BULK
$*
$* PARAM CARDS
$*
PARAM      K6ROT100.0000
PARAM     OIBULK     YES
PARAM    OMACHPR     YES
PARAM       POST      -2
PARAM    POSTEXT     YES
PARAM    UNITSYS   MN-MM
$*
$* GRID CARDS
$*
GRID*                  1               07.7500000000E+000.0000000000E+00+
*       -5.000000000E+00               0
GRID*                  2               04.9717383385E+002.3275548220E-01+
*       3.0000000000E+02               0
GRID*                  3               04.9718465805E+002.3186504841E-01+
*       2.5000000000E+02               0
GRID*                  4               07.4301767349E+005.3036022186E-01+
*       2.5000000000E+02               0
GRID*                  5               07.4292826653E+005.3715127707E-01+
*       1.5500000000E+02               0
GRID*                  6               07.4558577538E+003.3529379964E-01+
*       1.5000000000E+02               0
GRID*                  7               07.4551773071E+003.4046277404E-01+
*       0.0000000000E+00               0
GRID*                  8               06.7124205930E+00-3.873745779E+00+
*       -5.000000000E+00               0
GRID*                  9               03.8737457792E+00-6.712420593E+00+
*       -5.000000000E+00               0
GRID*                 10               01.4190388910E-13-7.750000000E+00+
*       -5.000000000E+00               0
GRID*                 11               0-3.873745779E+00-6.712420593E+00+
*       -5.000000000E+00               0
GRID*                 12               0-6.712420593E+00-3.873745779E+00+
*       -5.000000000E+00               0
GRID*                 13               0-7.750000000E+00-5.773159728E-15+
*       -5.000000000E+00               0
GRID*                 14               0-6.712420593E+003.8737457792E+00+
*       -5.000000000E+00               0
GRID*                 15               0-3.873745779E+006.7124205930E+00+
*       -5.000000000E+00               0
GRID*                 16               01.2700951402E-137.7500000000E+00+
*       -5.000000000E+00               0
GRID*                 17               03.8737457792E+006.7124205930E+00+
*       -5.000000000E+00               0
GRID*                 18               06.7124205930E+003.8737457792E+00+
*       -5.000000000E+00               0
GRID*                 19               0-2.007246284E+007.4855503060E+00+
*       -5.000000000E+00               0
GRID*                 20               07.4855503060E+00-2.007246284E+00+
*       -5.000000000E+00               0
GRID*                 21               05.4800777435E+005.4800777435E+00+
*       -5.000000000E+00               0
GRID*                 22               02.0072462838E+007.4855503060E+00+
*       -5.000000000E+00               0
GRID*                 23               07.4855503060E+002.0072462838E+00+
*       -5.000000000E+00               0
GRID*                 24               0-5.480077744E+005.4800777435E+00+
*       -5.000000000E+00               0
GRID*                 25               0-7.485550306E+002.0072462838E+00+
*       -5.000000000E+00               0
GRID*                 26               0-5.480077744E+00-5.480077744E+00+
*       -5.000000000E+00               0
GRID*                 27               0-7.485550306E+00-2.007246284E+00+
*       -5.000000000E+00               0
GRID*                 28               02.0072462838E+00-7.485550306E+00+
*       -5.000000000E+00               0
GRID*                 29               0-2.007246284E+00-7.485550306E+00+
*       -5.000000000E+00               0
GRID*                 30               05.4800777435E+00-5.480077744E+00+
*       -5.000000000E+00               0
GRID*                 31               04.9717487916E+002.3266927223E-01+
*       2.9601947233E+02               0
GRID*                 32               04.9717597396E+002.3257897976E-01+
*       2.9185044553E+02               0
GRID*                 33               04.9717717132E+002.3248023000E-01+
*       2.8729092491E+02               0
GRID*                 34               04.9717852816E+002.3236832705E-01+
*       2.8212408878E+02               0
GRID*                 35               04.9718009621E+002.3223900496E-01+
*       2.7615296797E+02               0
GRID*                 36               04.9718189498E+002.3209065473E-01+
*       2.6930327076E+02               0
GRID*                 37               04.9718387221E+002.3192758557E-01+
*       2.6177396432E+02               0
GRID*                 38               04.9718453682E+002.3187389044E-01+
*       2.5492671770E+02               0
GRID*                 39               04.9717435650E+002.3271237721E-01+
*       2.9800973616E+02               0
GRID*                 40               04.9717542656E+002.3262412599E-01+
*       2.9393495893E+02               0
GRID*                 41               04.9717657264E+002.3252960488E-01+
*       2.8957068522E+02               0
GRID*                 42               04.9717784974E+002.3242427852E-01+
*       2.8470750684E+02               0
GRID*                 43               04.9717931218E+002.3230366600E-01+
*       2.7913852837E+02               0
GRID*                 44               04.9718099559E+002.3216482984E-01+
*       2.7272811936E+02               0
GRID*                 45               04.9718288359E+002.3200912015E-01+
*       2.6553861754E+02               0
GRID*                 46               04.9718445258E+002.3188003485E-01+
*       2.5835034101E+02               0
GRID*                 47               04.9718459744E+002.3186946942E-01+
*       2.5246335885E+02               0
GRID*                 48               07.4293399493E+005.3671640182E-01+
*       1.5908015067E+02               0
GRID*                 49               07.4294039630E+005.3623043802E-01+
*       1.6363963188E+02               0
GRID*                 50               07.4294818689E+005.3563901057E-01+
*       1.6918860966E+02               0
GRID*                 51               07.4295778943E+005.3491002859E-01+
*       1.7602817190E+02               0
GRID*                 52               07.4296693740E+005.3421541846E-01+
*       1.8370564281E+02               0
GRID*                 53               07.4297286902E+005.3376470306E-01+
*       1.9145619125E+02               0
GRID*                 54               07.4297857396E+005.3333121102E-01+
*       1.9891056496E+02               0
GRID*                 55               07.4298393241E+005.3292404798E-01+
*       2.0591218238E+02               0
GRID*                 56               07.4298888512E+005.3254771462E-01+
*       2.1238364963E+02               0
GRID*                 57               07.4299342651E+005.3220263560E-01+
*       2.1831766398E+02               0
GRID*                 58               07.4299758778E+005.3188644081E-01+
*       2.2375498206E+02               0
GRID*                 59               07.4300141999E+005.3159524917E-01+
*       2.2876234339E+02               0
GRID*                 60               07.4300498190E+005.3132459647E-01+
*       2.3341651508E+02               0
GRID*                 61               07.4300833289E+005.3106996994E-01+
*       2.3779509912E+02               0
GRID*                 62               07.4301152986E+005.3082704769E-01+
*       2.4197241500E+02               0
GRID*                 63               07.4301462641E+005.3059175522E-01+
*       2.4601852853E+02               0
GRID*                 64               07.4301614995E+005.3047598854E-01+
*       2.4800926426E+02               0
GRID*                 65               07.4301307813E+005.3070940146E-01+
*       2.4399547177E+02               0
GRID*                 66               07.4300993138E+005.3094850882E-01+
*       2.3988375706E+02               0
GRID*                 67               07.4300665740E+005.3119728320E-01+
*       2.3560580710E+02               0
GRID*                 68               07.4300320094E+005.3145992282E-01+
*       2.3108942923E+02               0
GRID*                 69               07.4299950388E+005.3174084499E-01+
*       2.2625866273E+02               0
GRID*                 70               07.4299550715E+005.3204453820E-01+
*       2.2103632302E+02               0
GRID*                 71               07.4299115582E+005.3237517511E-01+
*       2.1535065680E+02               0
GRID*                 72               07.4298640877E+005.3273588130E-01+
*       2.0914791601E+02               0
GRID*                 73               07.4298125319E+005.3312762950E-01+
*       2.0241137367E+02               0
GRID*                 74               07.4297572149E+005.3354795704E-01+
*       1.9518337810E+02               0
GRID*                 75               07.4296990321E+005.3399006076E-01+
*       1.8758091703E+02               0
GRID*                 76               07.4296317889E+005.3450088413E-01+
*       1.7986690735E+02               0
GRID*                 77               07.4295298816E+005.3527451958E-01+
*       1.7260839078E+02               0
GRID*                 78               07.4294429160E+005.3593472430E-01+
*       1.6641412077E+02               0
GRID*                 79               07.4293719562E+005.3647341992E-01+
*       1.6135989127E+02               0
GRID*                 80               07.4293113073E+005.3693383944E-01+
*       1.5704007533E+02               0
GRID*                 81               07.6915424286E+004.4402903854E-01+
*       1.5250089391E+02               0
GRID*                 82               07.7278394711E+001.6832611785E-01+
*       -2.373519442E+00               0
GRID*                 83               07.4551995788E+003.4029364416E-01+
*       4.0558451674E+00               0
GRID*                 84               07.4552244224E+003.4010498287E-01+
*       8.5800662159E+00               0
GRID*                 85               07.4552545820E+003.3987595198E-01+
*       1.4072376712E+01               0
GRID*                 86               07.4552917427E+003.3959375542E-01+
*       2.0839634776E+01               0
GRID*                 87               07.4553310145E+003.3929549665E-01+
*       2.8463137906E+01               0
GRID*                 88               07.4553647633E+003.3903910281E-01+
*       3.6250159873E+01               0
GRID*                 89               07.4553981014E+003.3878582972E-01+
*       4.3942400664E+01               0
GRID*                 90               07.4554307414E+003.3853785984E-01+
*       5.1473575962E+01               0
GRID*                 91               07.4554624443E+003.3829700929E-01+
*       5.8788527381E+01               0
GRID*                 92               07.4554930300E+003.3806464687E-01+
*       6.5845683226E+01               0
GRID*                 93               07.4555223799E+003.3784167201E-01+
*       7.2617726411E+01               0
GRID*                 94               07.4555504340E+003.3762854220E-01+
*       7.9090762344E+01               0
GRID*                 95               07.4555771821E+003.3742533336E-01+
*       8.5262485245E+01               0
GRID*                 96               07.4556026546E+003.3723181597E-01+
*       9.1139865854E+01               0
GRID*                 97               07.4556269116E+003.3704753297E-01+
*       9.6736785576E+01               0
GRID*                 98               07.4556500339E+003.3687187025E-01+
*       1.0207189605E+02               0
GRID*                 99               07.4556721154E+003.3670411504E-01+
*       1.0716684485E+02               0
GRID*                100               07.4556932568E+003.3654350108E-01+
*       1.1204490473E+02               0
GRID*                101               07.4557135619E+003.3638924126E-01+
*       1.1672998057E+02               0
GRID*                102               07.4557331340E+003.3624054983E-01+
*       1.2124593720E+02               0
GRID*                103               07.4557520746E+003.3609665605E-01+
*       1.2561618271E+02               0
GRID*                104               07.4557704822E+003.3595681157E-01+
*       1.2986344553E+02               0
GRID*                105               07.4557884520E+003.3582029311E-01+
*       1.3400969298E+02               0
GRID*                106               07.4558060759E+003.3568640182E-01+
*       1.3807614953E+02               0
GRID*                107               07.4558234432E+003.3555446047E-01+
*       1.4208338366E+02               0
GRID*                108               07.4558406407E+003.3542380909E-01+
*       1.4605143996E+02               0
GRID*                109               07.4558491972E+003.3535880437E-01+
*       1.4802571998E+02               0
GRID*                110               07.4558320420E+003.3548913478E-01+
*       1.4406741181E+02               0
GRID*                111               07.4558147596E+003.3562043115E-01+
*       1.4007976660E+02               0
GRID*                112               07.4557972639E+003.3575334746E-01+
*       1.3604292125E+02               0
GRID*                113               07.4557794671E+003.3588855234E-01+
*       1.3193656926E+02               0
GRID*                114               07.4557612784E+003.3602673381E-01+
*       1.2773981412E+02               0
GRID*                115               07.4557426043E+003.3616860294E-01+
*       1.2343105996E+02               0
GRID*                116               07.4557233479E+003.3631489554E-01+
*       1.1898795889E+02               0
GRID*                117               07.4557034094E+003.3646637117E-01+
*       1.1438744265E+02               0
GRID*                118               07.4556826861E+003.3662380806E-01+
*       1.0960587479E+02               0
GRID*                119               07.4556610746E+003.3678799265E-01+
*       1.0461937045E+02               0
GRID*                120               07.4556384728E+003.3695970161E-01+
*       9.9404340814E+01               0
GRID*                121               07.4556147831E+003.3713967447E-01+
*       9.3938325715E+01               0
GRID*                122               07.4555899184E+003.3732857466E-01+
*       8.8201175549E+01               0
GRID*                123               07.4555638081E+003.3752693778E-01+
*       8.2176623794E+01               0
GRID*                124               07.4555364069E+003.3773510710E-01+
*       7.5854244377E+01               0
GRID*                125               07.4555077049E+003.3795315944E-01+
*       6.9231704818E+01               0
GRID*                126               07.4554777371E+003.3818082808E-01+
*       6.2317105303E+01               0
GRID*                127               07.4554465929E+003.3841743456E-01+
*       5.5131051672E+01               0
GRID*                128               07.4554144214E+003.3866184478E-01+
*       4.7707988313E+01               0
GRID*                129               07.4553814324E+003.3891246627E-01+
*       4.0096280268E+01               0
GRID*                130               07.4553478889E+003.3916729973E-01+
*       3.2356648889E+01               0
GRID*                131               07.4553126739E+003.3943480430E-01+
*       2.4651386341E+01               0
GRID*                132               07.4552731623E+003.3973485370E-01+
*       1.7456005744E+01               0
GRID*                133               07.4552395022E+003.3999046742E-01+
*       1.1326221464E+01               0
GRID*                134               07.4552120006E+003.4019931351E-01+
*       6.3179556917E+00               0
GRID*                135               07.4551884429E+003.4037820910E-01+
*       2.0279225837E+00               0
GRID*                136               06.6607764925E+00-3.447315785E+00+
*       0.0000000000E+00               0
GRID*                137               04.0429861528E+00-6.316946193E+00+
*       0.0000000000E+00               0
GRID*                138               03.4425845323E-01-7.492064260E+00+
*       0.0000000000E+00               0
GRID*                139               0-3.447315785E+00-6.660776492E+00+
*       0.0000000000E+00               0
GRID*                140               0-6.316946193E+00-4.042986153E+00+
*       0.0000000000E+00               0
GRID*                141               0-7.492064260E+00-3.442584532E-01+
*       0.0000000000E+00               0
GRID*                142               0-6.660776492E+003.4473157851E+00+
*       0.0000000000E+00               0
GRID*                143               0-4.042986153E+006.3169461933E+00+
*       0.0000000000E+00               0
GRID*                144               0-3.442584532E-017.4920642596E+00+
*       0.0000000000E+00               0
GRID*                145               03.4473157851E+006.6607764925E+00+
*       0.0000000000E+00               0
GRID*                146               06.3169461933E+004.0429861528E+00+
*       0.0000000000E+00               0
GRID*                147               07.1475006024E+002.2722598587E+00+
*       0.0000000000E+00               0
GRID*                148               05.0542619549E+005.5411169284E+00+
*       0.0000000000E+00               0
GRID*                149               01.6079325659E+007.3255784212E+00+
*       0.0000000000E+00               0
GRID*                150               0-2.272259859E+007.1475006024E+00+
*       0.0000000000E+00               0
GRID*                151               0-5.541116928E+005.0542619549E+00+
*       0.0000000000E+00               0
GRID*                152               0-7.325578421E+001.6079325659E+00+
*       0.0000000000E+00               0
GRID*                153               0-7.147500602E+00-2.272259859E+00+
*       0.0000000000E+00               0
GRID*                154               0-5.054261955E+00-5.541116928E+00+
*       0.0000000000E+00               0
GRID*                155               0-1.607932566E+00-7.325578421E+00+
*       0.0000000000E+00               0
GRID*                156               02.2722598587E+00-7.147500602E+00+
*       0.0000000000E+00               0
GRID*                157               05.5411169284E+00-5.054261955E+00+
*       0.0000000000E+00               0
GRID*                158               07.3255784212E+00-1.607932566E+00+
*       0.0000000000E+00               0
GRID*                159               06.3197637500E+004.0385818504E+00+
*       1.5000000000E+02               0
GRID*                160               03.4519484810E+006.6583768549E+00+
*       1.5000000000E+02               0
GRID*                161               0-3.390354816E-017.4923031618E+00+
*       1.5000000000E+02               0
GRID*                162               0-4.038581850E+006.3197637500E+00+
*       1.5000000000E+02               0
GRID*                163               0-6.658376855E+003.4519484810E+00+
*       1.5000000000E+02               0
GRID*                164               0-7.492303162E+00-3.390354816E-01+
*       1.5000000000E+02               0
GRID*                165               0-6.319763750E+00-4.038581850E+00+
*       1.5000000000E+02               0
GRID*                166               0-3.451948481E+00-6.658376855E+00+
*       1.5000000000E+02               0
GRID*                167               03.3903548164E-01-7.492303162E+00+
*       1.5000000000E+02               0
GRID*                168               04.0385818504E+00-6.319763750E+00+
*       1.5000000000E+02               0
GRID*                169               06.6583768549E+00-3.451948481E+00+
*       1.5000000000E+02               0
GRID*                170               07.1490796132E+002.2672872481E+00+
*       1.5000000000E+02               0
GRID*                171               07.3244564226E+00-1.613039191E+00+
*       1.5000000000E+02               0
GRID*                172               05.5375926592E+00-5.058124083E+00+
*       1.5000000000E+02               0
GRID*                173               02.2672872481E+00-7.149079613E+00+
*       1.5000000000E+02               0
GRID*                174               0-1.613039191E+00-7.324456423E+00+
*       1.5000000000E+02               0
GRID*                175               0-5.058124083E+00-5.537592659E+00+
*       1.5000000000E+02               0
GRID*                176               0-7.149079613E+00-2.267287248E+00+
*       1.5000000000E+02               0
GRID*                177               0-7.324456423E+001.6130391914E+00+
*       1.5000000000E+02               0
GRID*                178               0-5.537592659E+005.0581240830E+00+
*       1.5000000000E+02               0
GRID*                179               0-2.267287248E+007.1490796132E+00+
*       1.5000000000E+02               0
GRID*                180               01.6130391914E+007.3244564226E+00+
*       1.5000000000E+02               0
GRID*                181               05.0581240830E+005.5375926592E+00+
*       1.5000000000E+02               0
GRID*                182               06.7496831945E+00-3.269815269E+00+
*       1.5500000000E+02               0
GRID*                183               04.2090981481E+00-6.207464620E+00+
*       1.5500000000E+02               0
GRID*                184               05.4285425326E-01-7.480269298E+00+
*       1.5500000000E+02               0
GRID*                185               0-3.269815269E+00-6.749683195E+00+
*       1.5500000000E+02               0
GRID*                186               0-6.207464620E+00-4.209098148E+00+
*       1.5500000000E+02               0
GRID*                187               0-7.480269298E+00-5.428542533E-01+
*       1.5500000000E+02               0
GRID*                188               0-6.749683195E+003.2698152688E+00+
*       1.5500000000E+02               0
GRID*                189               0-4.209098148E+006.2074646201E+00+
*       1.5500000000E+02               0
GRID*                190               0-5.428542533E-017.4802692982E+00+
*       1.5500000000E+02               0
GRID*                191               03.2698152688E+006.7496831945E+00+
*       1.5500000000E+02               0
GRID*                192               06.2074646201E+004.2090981481E+00+
*       1.5500000000E+02               0
GRID*                193               07.0848553107E+002.4606382078E+00+
*       1.5500000000E+02               0
GRID*                194               04.9054932208E+005.6732050681E+00+
*       1.5500000000E+02               0
GRID*                195               01.4130584844E+007.3656221750E+00+
*       1.5500000000E+02               0
GRID*                196               0-2.460638208E+007.0848553107E+00+
*       1.5500000000E+02               0
GRID*                197               0-5.673205068E+004.9054932208E+00+
*       1.5500000000E+02               0
GRID*                198               0-7.365622175E+001.4130584844E+00+
*       1.5500000000E+02               0
GRID*                199               0-7.084855311E+00-2.460638208E+00+
*       1.5500000000E+02               0
GRID*                200               0-4.905493221E+00-5.673205068E+00+
*       1.5500000000E+02               0
GRID*                201               0-1.413058484E+00-7.365622175E+00+
*       1.5500000000E+02               0
GRID*                202               02.4606382078E+00-7.084855311E+00+
*       1.5500000000E+02               0
GRID*                203               05.6732050681E+00-4.905493221E+00+
*       1.5500000000E+02               0
GRID*                204               07.3656221750E+00-1.413058484E+00+
*       1.5500000000E+02               0
GRID*                205               06.2113178992E+004.2034114787E+00+
*       2.5000000000E+02               0
GRID*                206               03.2759826989E+006.7466919350E+00+
*       2.5000000000E+02               0
GRID*                207               0-5.360029056E-017.4807642808E+00+
*       2.5000000000E+02               0
GRID*                208               0-4.203411479E+006.2113178992E+00+
*       2.5000000000E+02               0
GRID*                209               0-6.746691935E+003.2759826989E+00+
*       2.5000000000E+02               0
GRID*                210               0-7.480764281E+00-5.360029056E-01+
*       2.5000000000E+02               0
GRID*                211               0-6.211317899E+00-4.203411479E+00+
*       2.5000000000E+02               0
GRID*                212               0-3.275982699E+00-6.746691935E+00+
*       2.5000000000E+02               0
GRID*                213               05.3600290564E-01-7.480764281E+00+
*       2.5000000000E+02               0
GRID*                214               04.2034114787E+00-6.211317899E+00+
*       2.5000000000E+02               0
GRID*                215               06.7466919350E+00-3.275982699E+00+
*       2.5000000000E+02               0
GRID*                216               07.0871012025E+002.4541620362E+00+
*       2.5000000000E+02               0
GRID*                217               07.3643257723E+00-1.419804247E+00+
*       2.5000000000E+02               0
GRID*                218               05.6687104393E+00-4.910687861E+00+
*       2.5000000000E+02               0
GRID*                219               02.4541620362E+00-7.087101203E+00+
*       2.5000000000E+02               0
GRID*                220               0-1.419804247E+00-7.364325772E+00+
*       2.5000000000E+02               0
GRID*                221               0-4.910687861E+00-5.668710439E+00+
*       2.5000000000E+02               0
GRID*                222               0-7.087101203E+00-2.454162036E+00+
*       2.5000000000E+02               0
GRID*                223               0-7.364325772E+001.4198042466E+00+
*       2.5000000000E+02               0
GRID*                224               0-5.668710439E+004.9106878607E+00+
*       2.5000000000E+02               0
GRID*                225               0-2.454162036E+007.0871012025E+00+
*       2.5000000000E+02               0
GRID*                226               01.4198042466E+007.3643257723E+00+
*       2.5000000000E+02               0
GRID*                227               04.9106878607E+005.6687104393E+00+
*       2.5000000000E+02               0
GRID*                228               03.3659002181E+003.6973645713E+00+
*       2.5000000000E+02               0
GRID*                229               0-2.342212391E-014.9945085225E+00+
*       2.5000000000E+02               0
GRID*                230               0-3.696156089E+003.3672276050E+00+
*       2.5000000000E+02               0
GRID*                231               0-4.994493341E+00-2.341480904E-01+
*       2.5000000000E+02               0
GRID*                232               0-3.365184054E+00-3.698033692E+00+
*       2.5000000000E+02               0
GRID*                233               02.3355043739E-01-4.994521408E+00+
*       2.5000000000E+02               0
GRID*                234               03.6966419895E+00-3.366724942E+00+
*       2.5000000000E+02               0
GRID*                235               0-4.703512328E+001.6960814513E+00+
*       2.5000000000E+02               0
GRID*                236               0-2.127010214E+004.5249710501E+00+
*       2.5000000000E+02               0
GRID*                237               04.5243770816E+002.1282737408E+00+
*       2.5000000000E+02               0
GRID*                238               01.6948869700E+004.7039722212E+00+
*       2.5000000000E+02               0
GRID*                239               0-4.524376350E+00-2.128355062E+00+
*       2.5000000000E+02               0
GRID*                240               0-1.694332193E+00-4.704123005E+00+
*       2.5000000000E+02               0
GRID*                241               04.7036495482E+00-1.695645638E+00+
*       2.5000000000E+02               0
GRID*                242               02.1267395300E+00-4.525140105E+00+
*       2.5000000000E+02               0
GRID*                243               03.3652348856E+003.6979699767E+00+
*       3.0000000000E+02               0
GRID*                244               0-2.351177841E-014.9944663907E+00+
*       3.0000000000E+02               0
GRID*                245               0-3.696761733E+003.3665624901E+00+
*       3.0000000000E+02               0
GRID*                246               0-4.994451007E+00-2.350466397E-01+
*       3.0000000000E+02               0
GRID*                247               0-3.364519644E+00-3.698638135E+00+
*       3.0000000000E+02               0
GRID*                248               02.3444899172E-01-4.994479182E+00+
*       3.0000000000E+02               0
GRID*                249               03.6972460057E+00-3.366061619E+00+
*       3.0000000000E+02               0
GRID*                250               04.5239942028E+002.1290877398E+00+
*       3.0000000000E+02               0
GRID*                251               04.7039546370E+00-1.694799404E+00+
*       3.0000000000E+02               0
GRID*                252               02.1275521740E+00-4.524758083E+00+
*       3.0000000000E+02               0
GRID*                253               0-1.693485874E+00-4.704427858E+00+
*       3.0000000000E+02               0
GRID*                254               0-4.523993745E+00-2.129168384E+00+
*       3.0000000000E+02               0
GRID*                255               0-4.703817192E+001.6952359090E+00+
*       3.0000000000E+02               0
GRID*                256               0-2.127824320E+004.5245883982E+00+
*       3.0000000000E+02               0
GRID*                257               01.6940427017E+004.7042763256E+00+
*       3.0000000000E+02               0
GRID*                258               06.3196941858E+004.0386895194E+00+
*       1.4605144000E+02               0
GRID*                259               03.4518315772E+006.6584374226E+00+
*       1.4605144002E+02               0
GRID*                260               0-3.391635337E-017.4922967235E+00+
*       1.4605143998E+02               0
GRID*                261               0-4.038689519E+006.3196941858E+00+
*       1.4605144000E+02               0
GRID*                262               0-6.658437423E+003.4518315772E+00+
*       1.4605144002E+02               0
GRID*                263               0-7.492296723E+00-3.391635337E-01+
*       1.4605143998E+02               0
GRID*                264               0-6.319694186E+00-4.038689519E+00+
*       1.4605144000E+02               0
GRID*                265               0-3.451831577E+00-6.658437423E+00+
*       1.4605144002E+02               0
GRID*                266               03.3916353370E-01-7.492296723E+00+
*       1.4605143998E+02               0
GRID*                267               04.0386895194E+00-6.319694186E+00+
*       1.4605144000E+02               0
GRID*                268               06.6584374226E+00-3.451831577E+00+
*       1.4605144002E+02               0
GRID*                269               06.3196207758E+004.0388037702E+00+
*       1.4208338377E+02               0
GRID*                270               03.4517130414E+006.6584988320E+00+
*       1.4208338379E+02               0
GRID*                271               0-3.392992103E-017.4922902457E+00+
*       1.4208338374E+02               0
GRID*                272               0-4.038803770E+006.3196207758E+00+
*       1.4208338377E+02               0
GRID*                273               0-6.658498832E+003.4517130414E+00+
*       1.4208338379E+02               0
GRID*                274               0-7.492290246E+00-3.392992103E-01+
*       1.4208338374E+02               0
GRID*                275               0-6.319620776E+00-4.038803770E+00+
*       1.4208338377E+02               0
GRID*                276               0-3.451713041E+00-6.658498832E+00+
*       1.4208338379E+02               0
GRID*                277               03.3929921035E-01-7.492290246E+00+
*       1.4208338374E+02               0
GRID*                278               04.0388037702E+00-6.319620776E+00+
*       1.4208338377E+02               0
GRID*                279               06.6584988320E+00-3.451713041E+00+
*       1.4208338379E+02               0
GRID*                280               06.3195452404E+004.0389209703E+00+
*       1.3807614973E+02               0
GRID*                281               03.4515924625E+006.6585612749E+00+
*       1.3807614971E+02               0
GRID*                282               0-3.394385217E-017.4922833996E+00+
*       1.3807614969E+02               0
GRID*                283               0-4.038920970E+006.3195452404E+00+
*       1.3807614973E+02               0
GRID*                284               0-6.658561275E+003.4515924625E+00+
*       1.3807614971E+02               0
GRID*                285               0-7.492283400E+00-3.394385217E-01+
*       1.3807614969E+02               0
GRID*                286               0-6.319545240E+00-4.038920970E+00+
*       1.3807614973E+02               0
GRID*                287               0-3.451592462E+00-6.658561275E+00+
*       1.3807614971E+02               0
GRID*                288               03.3943852169E-01-7.492283400E+00+
*       1.3807614969E+02               0
GRID*                289               04.0389209703E+00-6.319545240E+00+
*       1.3807614973E+02               0
GRID*                290               06.6585612749E+00-3.451592462E+00+
*       1.3807614971E+02               0
GRID*                291               06.3194672496E+004.0390416435E+00+
*       1.3400969330E+02               0
GRID*                292               03.4514693088E+006.6586250282E+00+
*       1.3400969321E+02               0
GRID*                293               0-3.395820855E-017.4922761611E+00+
*       1.3400969325E+02               0
GRID*                294               0-4.039041643E+006.3194672496E+00+
*       1.3400969330E+02               0
GRID*                295               0-6.658625028E+003.4514693088E+00+
*       1.3400969321E+02               0
GRID*                296               0-7.492276161E+00-3.395820855E-01+
*       1.3400969325E+02               0
GRID*                297               0-6.319467250E+00-4.039041643E+00+
*       1.3400969330E+02               0
GRID*                298               0-3.451469309E+00-6.658625028E+00+
*       1.3400969321E+02               0
GRID*                299               03.3958208553E-01-7.492276161E+00+
*       1.3400969325E+02               0
GRID*                300               04.0390416435E+00-6.319467250E+00+
*       1.3400969330E+02               0
GRID*                301               06.6586250282E+00-3.451469309E+00+
*       1.3400969321E+02               0
GRID*                302               06.3193864473E+004.0391663499E+00+
*       1.2986344600E+02               0
GRID*                303               03.4513430298E+006.6586903787E+00+
*       1.2986344581E+02               0
GRID*                304               0-3.397305646E-017.4922685018E+00+
*       1.2986344595E+02               0
GRID*                305               0-4.039166350E+006.3193864473E+00+
*       1.2986344600E+02               0
GRID*                306               0-6.658690379E+003.4513430298E+00+
*       1.2986344581E+02               0
GRID*                307               0-7.492268502E+00-3.397305646E-01+
*       1.2986344595E+02               0
GRID*                308               0-6.319386447E+00-4.039166350E+00+
*       1.2986344600E+02               0
GRID*                309               0-3.451343030E+00-6.658690379E+00+
*       1.2986344581E+02               0
GRID*                310               03.3973056456E-01-7.492268502E+00+
*       1.2986344595E+02               0
GRID*                311               04.0391663499E+00-6.319386447E+00+
*       1.2986344600E+02               0
GRID*                312               06.6586903787E+00-3.451343030E+00+
*       1.2986344581E+02               0
GRID*                313               06.3193024530E+004.0392956845E+00+
*       1.2561618335E+02               0
GRID*                314               03.4512130575E+006.6587576221E+00+
*       1.2561618303E+02               0
GRID*                315               0-3.398846636E-017.4922603898E+00+
*       1.2561618330E+02               0
GRID*                316               0-4.039295684E+006.3193024530E+00+
*       1.2561618335E+02               0
GRID*                317               0-6.658757622E+003.4512130575E+00+
*       1.2561618303E+02               0
GRID*                318               0-7.492260390E+00-3.398846636E-01+
*       1.2561618330E+02               0
GRID*                319               0-6.319302453E+00-4.039295684E+00+
*       1.2561618335E+02               0
GRID*                320               0-3.451213057E+00-6.658757622E+00+
*       1.2561618303E+02               0
GRID*                321               03.3988466356E-01-7.492260390E+00+
*       1.2561618330E+02               0
GRID*                322               04.0392956845E+00-6.319302453E+00+
*       1.2561618335E+02               0
GRID*                323               06.6587576221E+00-3.451213057E+00+
*       1.2561618303E+02               0
GRID*                324               06.3192148660E+004.0394302720E+00+
*       1.2124593804E+02               0
GRID*                325               03.4510788117E+006.6588270607E+00+
*       1.2124593757E+02               0
GRID*                326               0-3.400451235E-017.4922517901E+00+
*       1.2124593799E+02               0
GRID*                327               0-4.039430272E+006.3192148660E+00+
*       1.2124593804E+02               0
GRID*                328               0-6.658827061E+003.4510788117E+00+
*       1.2124593757E+02               0
GRID*                329               0-7.492251790E+00-3.400451235E-01+
*       1.2124593799E+02               0
GRID*                330               0-6.319214866E+00-4.039430272E+00+
*       1.2124593804E+02               0
GRID*                331               0-3.451078812E+00-6.658827061E+00+
*       1.2124593757E+02               0
GRID*                332               03.4004512350E-01-7.492251790E+00+
*       1.2124593799E+02               0
GRID*                333               04.0394302720E+00-6.319214866E+00+
*       1.2124593804E+02               0
GRID*                334               06.6588270607E+00-3.451078812E+00+
*       1.2124593757E+02               0
GRID*                335               06.3191232716E+004.0395707585E+00+
*       1.1672998164E+02               0
GRID*                336               03.4509397096E+006.6588989984E+00+
*       1.1672998098E+02               0
GRID*                337               0-3.402127106E-017.4922426669E+00+
*       1.1672998159E+02               0
GRID*                338               0-4.039570759E+006.3191232716E+00+
*       1.1672998164E+02               0
GRID*                339               0-6.658898998E+003.4509397096E+00+
*       1.1672998098E+02               0
GRID*                340               0-7.492242667E+00-3.402127106E-01+
*       1.1672998159E+02               0
GRID*                341               0-6.319123272E+00-4.039570759E+00+
*       1.1672998164E+02               0
GRID*                342               0-3.450939710E+00-6.658898998E+00+
*       1.1672998098E+02               0
GRID*                343               03.4021271055E-01-7.492242667E+00+
*       1.1672998159E+02               0
GRID*                344               04.0395707585E+00-6.319123272E+00+
*       1.1672998164E+02               0
GRID*                345               06.6588989984E+00-3.450939710E+00+
*       1.1672998098E+02               0
GRID*                346               06.3190272526E+004.0397177969E+00+
*       1.1204490605E+02               0
GRID*                347               03.4507951807E+006.6589737338E+00+
*       1.1204490517E+02               0
GRID*                348               0-3.403881975E-017.4922329850E+00+
*       1.1204490601E+02               0
GRID*                349               0-4.039717797E+006.3190272526E+00+
*       1.1204490605E+02               0
GRID*                350               0-6.658973734E+003.4507951807E+00+
*       1.1204490517E+02               0
GRID*                351               0-7.492232985E+00-3.403881975E-01+
*       1.1204490601E+02               0
GRID*                352               0-6.319027253E+00-4.039717797E+00+
*       1.1204490605E+02               0
GRID*                353               0-3.450795181E+00-6.658973734E+00+
*       1.1204490517E+02               0
GRID*                354               03.4038819751E-01-7.492232985E+00+
*       1.1204490601E+02               0
GRID*                355               04.0397177969E+00-6.319027253E+00+
*       1.1204490605E+02               0
GRID*                356               06.6589737338E+00-3.450795181E+00+
*       1.1204490517E+02               0
GRID*                357               06.3189264068E+004.0398720222E+00+
*       1.0716684645E+02               0
GRID*                358               03.4506446924E+006.6590515467E+00+
*       1.0716684532E+02               0
GRID*                359               0-3.405723339E-017.4922227138E+00+
*       1.0716684641E+02               0
GRID*                360               0-4.039872022E+006.3189264068E+00+
*       1.0716684645E+02               0
GRID*                361               0-6.659051547E+003.4506446924E+00+
*       1.0716684532E+02               0
GRID*                362               0-7.492222714E+00-3.405723339E-01+
*       1.0716684641E+02               0
GRID*                363               0-6.318926407E+00-4.039872022E+00+
*       1.0716684645E+02               0
GRID*                364               0-3.450644692E+00-6.659051547E+00+
*       1.0716684532E+02               0
GRID*                365               03.4057233392E-01-7.492222714E+00+
*       1.0716684641E+02               0
GRID*                366               04.0398720222E+00-6.318926407E+00+
*       1.0716684645E+02               0
GRID*                367               06.6590515467E+00-3.450644692E+00+
*       1.0716684532E+02               0
GRID*                368               06.3188203737E+004.0400340150E+00+
*       1.0207189796E+02               0
GRID*                369               03.4504877876E+006.6591326800E+00+
*       1.0207189656E+02               0
GRID*                370               0-3.407658002E-017.4922118318E+00+
*       1.0207189793E+02               0
GRID*                371               0-4.040034015E+006.3188203737E+00+
*       1.0207189796E+02               0
GRID*                372               0-6.659132680E+003.4504877876E+00+
*       1.0207189656E+02               0
GRID*                373               0-7.492211832E+00-3.407658002E-01+
*       1.0207189793E+02               0
GRID*                374               0-6.318820374E+00-4.040034015E+00+
*       1.0207189796E+02               0
GRID*                375               0-3.450487788E+00-6.659132680E+00+
*       1.0207189656E+02               0
GRID*                376               03.4076580019E-01-7.492211832E+00+
*       1.0207189793E+02               0
GRID*                377               04.0400340150E+00-6.318820374E+00+
*       1.0207189796E+02               0
GRID*                378               06.6591326800E+00-3.450487788E+00+
*       1.0207189656E+02               0
GRID*                379               06.3187088749E+004.0402042466E+00+
*       9.6736787820E+01               0
GRID*                380               03.4503241397E+006.6592173116E+00+
*       9.6736786104E+01               0
GRID*                381               0-3.409691396E-017.4922003335E+00+
*       9.6736787796E+01               0
GRID*                382               0-4.040204247E+006.3187088749E+00+
*       9.6736787820E+01               0
GRID*                383               0-6.659217312E+003.4503241397E+00+
*       9.6736786104E+01               0
GRID*                384               0-7.492200334E+00-3.409691396E-01+
*       9.6736787796E+01               0
GRID*                385               0-6.318708875E+00-4.040204247E+00+
*       9.6736787820E+01               0
GRID*                386               0-3.450324140E+00-6.659217312E+00+
*       9.6736786104E+01               0
GRID*                387               03.4096913955E-01-7.492200334E+00+
*       9.6736787796E+01               0
GRID*                388               04.0402042466E+00-6.318708875E+00+
*       9.6736787820E+01               0
GRID*                389               06.6592173116E+00-3.450324140E+00+
*       9.6736786104E+01               0
GRID*                390               06.3185917706E+004.0403829990E+00+
*       9.1139868449E+01               0
GRID*                391               03.4501536326E+006.6593055146E+00+
*       9.1139866396E+01               0
GRID*                392               0-3.411826598E-017.4921882398E+00+
*       9.1139868432E+01               0
GRID*                393               0-4.040382999E+006.3185917706E+00+
*       9.1139868449E+01               0
GRID*                394               0-6.659305515E+003.4501536326E+00+
*       9.1139866396E+01               0
GRID*                395               0-7.492188240E+00-3.411826598E-01+
*       9.1139868432E+01               0
GRID*                396               0-6.318591771E+00-4.040382999E+00+
*       9.1139868449E+01               0
GRID*                397               0-3.450153633E+00-6.659305515E+00+
*       9.1139866396E+01               0
GRID*                398               03.4118265981E-01-7.492188240E+00+
*       9.1139868432E+01               0
GRID*                399               04.0403829990E+00-6.318591771E+00+
*       9.1139868449E+01               0
GRID*                400               06.6593055146E+00-3.450153633E+00+
*       9.1139866396E+01               0
GRID*                401               06.3184691414E+004.0405702532E+00+
*       8.5262488202E+01               0
GRID*                402               03.4499764721E+006.6593972008E+00+
*       8.5262485788E+01               0
GRID*                403               0-3.414062949E-017.4921756119E+00+
*       8.5262488191E+01               0
GRID*                404               0-4.040570253E+006.3184691414E+00+
*       8.5262488202E+01               0
GRID*                405               0-6.659397201E+003.4499764721E+00+
*       8.5262485788E+01               0
GRID*                406               0-7.492175612E+00-3.414062949E-01+
*       8.5262488191E+01               0
GRID*                407               0-6.318469141E+00-4.040570253E+00+
*       8.5262488202E+01               0
GRID*                408               0-3.449976472E+00-6.659397201E+00+
*       8.5262485788E+01               0
GRID*                409               03.4140629491E-01-7.492175612E+00+
*       8.5262488191E+01               0
GRID*                410               04.0405702532E+00-6.318469141E+00+
*       8.5262488202E+01               0
GRID*                411               06.6593972008E+00-3.449976472E+00+
*       8.5262485788E+01               0
GRID*                412               06.3183414006E+004.0407655344E+00+
*       7.9090765658E+01               0
GRID*                413               03.4497933420E+006.6594920434E+00+
*       7.9090762868E+01               0
GRID*                414               0-3.416394128E-017.4921625721E+00+
*       7.9090765654E+01               0
GRID*                415               0-4.040765534E+006.3183414006E+00+
*       7.9090765658E+01               0
GRID*                416               0-6.659492043E+003.4497933420E+00+
*       7.9090762868E+01               0
GRID*                417               0-7.492162572E+00-3.416394128E-01+
*       7.9090765654E+01               0
GRID*                418               0-6.318341401E+00-4.040765534E+00+
*       7.9090765658E+01               0
GRID*                419               0-3.449793342E+00-6.659492043E+00+
*       7.9090762868E+01               0
GRID*                420               03.4163941282E-01-7.492162572E+00+
*       7.9090765654E+01               0
GRID*                421               04.0407655344E+00-6.318341401E+00+
*       7.9090765658E+01               0
GRID*                422               06.6594920434E+00-3.449793342E+00+
*       7.9090762868E+01               0
GRID*                423               06.3182094502E+004.0409676983E+00+
*       7.2617730056E+01               0
GRID*                424               03.4496056206E+006.6595893680E+00+
*       7.2617726886E+01               0
GRID*                425               0-3.418805506E-017.4921493320E+00+
*       7.2617730057E+01               0
GRID*                426               0-4.040967698E+006.3182094502E+00+
*       7.2617730056E+01               0
GRID*                427               0-6.659589368E+003.4496056206E+00+
*       7.2617726886E+01               0
GRID*                428               0-7.492149332E+00-3.418805506E-01+
*       7.2617730057E+01               0
GRID*                429               0-6.318209450E+00-4.040967698E+00+
*       7.2617730056E+01               0
GRID*                430               0-3.449605621E+00-6.659589368E+00+
*       7.2617726886E+01               0
GRID*                431               03.4188055062E-01-7.492149332E+00+
*       7.2617730057E+01               0
GRID*                432               04.0409676983E+00-6.318209450E+00+
*       7.2617730056E+01               0
GRID*                433               06.6595893680E+00-3.449605621E+00+
*       7.2617726886E+01               0
GRID*                434               06.3180749013E+004.0411746333E+00+
*       6.5845687142E+01               0
GRID*                435               03.4494156914E+006.6596879983E+00+
*       6.5845683608E+01               0
GRID*                436               0-3.421270431E-017.4921362349E+00+
*       6.5845687149E+01               0
GRID*                437               0-4.041174633E+006.3180749013E+00+
*       6.5845687142E+01               0
GRID*                438               0-6.659687998E+003.4494156914E+00+
*       6.5845683608E+01               0
GRID*                439               0-7.492136235E+00-3.421270431E-01+
*       6.5845687149E+01               0
GRID*                440               0-6.318074901E+00-4.041174633E+00+
*       6.5845687142E+01               0
GRID*                441               0-3.449415691E+00-6.659687998E+00+
*       6.5845683608E+01               0
GRID*                442               03.4212704306E-01-7.492136235E+00+
*       6.5845687149E+01               0
GRID*                443               04.0411746333E+00-6.318074901E+00+
*       6.5845687142E+01               0
GRID*                444               06.6596879983E+00-3.449415691E+00+
*       6.5845683608E+01               0
GRID*                445               06.3179404011E+004.0413828234E+00+
*       5.8788531457E+01               0
GRID*                446               03.4492274116E+006.6597860236E+00+
*       5.8788527602E+01               0
GRID*                447               0-3.423744747E-017.4921238215E+00+
*       5.8788531467E+01               0
GRID*                448               0-4.041382823E+006.3179404011E+00+
*       5.8788531457E+01               0
GRID*                449               0-6.659786024E+003.4492274116E+00+
*       5.8788527602E+01               0
GRID*                450               0-7.492123821E+00-3.423744747E-01+
*       5.8788531467E+01               0
GRID*                451               0-6.317940401E+00-4.041382823E+00+
*       5.8788531457E+01               0
GRID*                452               0-3.449227412E+00-6.659786024E+00+
*       5.8788527602E+01               0
GRID*                453               03.4237447474E-01-7.492123821E+00+
*       5.8788531467E+01               0
GRID*                454               04.0413828234E+00-6.317940401E+00+
*       5.8788531457E+01               0
GRID*                455               06.6597860236E+00-3.449227412E+00+
*       5.8788527602E+01               0
GRID*                456               06.3178101698E+004.0415866404E+00+
*       5.1473580008E+01               0
GRID*                457               03.4490465120E+006.6598806006E+00+
*       5.1473575924E+01               0
GRID*                458               0-3.426157890E-017.4921129415E+00+
*       5.1473580018E+01               0
GRID*                459               0-4.041586640E+006.3178101698E+00+
*       5.1473580008E+01               0
GRID*                460               0-6.659880601E+003.4490465120E+00+
*       5.1473575924E+01               0
GRID*                461               0-7.492112941E+00-3.426157890E-01+
*       5.1473580018E+01               0
GRID*                462               0-6.317810170E+00-4.041586640E+00+
*       5.1473580008E+01               0
GRID*                463               0-3.449046512E+00-6.659880601E+00+
*       5.1473575924E+01               0
GRID*                464               03.4261578898E-01-7.492112941E+00+
*       5.1473580018E+01               0
GRID*                465               04.0415866404E+00-6.317810170E+00+
*       5.1473580008E+01               0
GRID*                466               06.6598806006E+00-3.449046512E+00+
*       5.1473575924E+01               0
GRID*                467               06.3176910111E+004.0417770231E+00+
*       4.3942404360E+01               0
GRID*                468               03.4488523209E+006.6599818758E+00+
*       4.3942400403E+01               0
GRID*                469               0-3.428396189E-017.4921049716E+00+
*       4.3942404365E+01               0
GRID*                470               0-4.041777023E+006.3176910111E+00+
*       4.3942404360E+01               0
GRID*                471               0-6.659981876E+003.4488523209E+00+
*       4.3942400403E+01               0
GRID*                472               0-7.492104972E+00-3.428396189E-01+
*       4.3942404365E+01               0
GRID*                473               0-6.317691011E+00-4.041777023E+00+
*       4.3942404360E+01               0
GRID*                474               0-3.448852321E+00-6.659981876E+00+
*       4.3942400403E+01               0
GRID*                475               03.4283961888E-01-7.492104972E+00+
*       4.3942404365E+01               0
GRID*                476               04.0417770231E+00-6.317691011E+00+
*       4.3942404360E+01               0
GRID*                477               06.6599818758E+00-3.448852321E+00+
*       4.3942400403E+01               0
GRID*                478               06.3175945443E+004.0419385720E+00+
*       3.6250162669E+01               0
GRID*                479               03.4486342124E+006.6600950391E+00+
*       3.6250159509E+01               0
GRID*                480               0-3.430266096E-017.4921023012E+00+
*       3.6250162662E+01               0
GRID*                481               0-4.041938572E+006.3175945443E+00+
*       3.6250162669E+01               0
GRID*                482               0-6.660095039E+003.4486342124E+00+
*       3.6250159509E+01               0
GRID*                483               0-7.492102301E+00-3.430266096E-01+
*       3.6250162662E+01               0
GRID*                484               0-6.317594544E+00-4.041938572E+00+
*       3.6250162669E+01               0
GRID*                485               0-3.448634212E+00-6.660095039E+00+
*       3.6250159509E+01               0
GRID*                486               03.4302660965E-01-7.492102301E+00+
*       3.6250162662E+01               0
GRID*                487               04.0419385720E+00-6.317594544E+00+
*       3.6250162669E+01               0
GRID*                488               06.6600950391E+00-3.448634212E+00+
*       3.6250159509E+01               0
GRID*                489               06.3175430647E+004.0420419240E+00+
*       2.8463138802E+01               0
GRID*                490               03.4483999174E+006.6602162337E+00+
*       2.8463137534E+01               0
GRID*                491               0-3.431397659E-017.4921096101E+00+
*       2.8463138769E+01               0
GRID*                492               0-4.042041924E+006.3175430647E+00+
*       2.8463138802E+01               0
GRID*                493               0-6.660216234E+003.4483999174E+00+
*       2.8463137534E+01               0
GRID*                494               0-7.492109610E+00-3.431397659E-01+
*       2.8463138769E+01               0
GRID*                495               0-6.317543065E+00-4.042041924E+00+
*       2.8463138802E+01               0
GRID*                496               0-3.448399917E+00-6.660216234E+00+
*       2.8463137534E+01               0
GRID*                497               03.4313976592E-01-7.492109610E+00+
*       2.8463138769E+01               0
GRID*                498               04.0420419240E+00-6.317543065E+00+
*       2.8463138802E+01               0
GRID*                499               06.6602162337E+00-3.448399917E+00+
*       2.8463137534E+01               0
GRID*                500               06.3174882689E+004.0421555010E+00+
*       2.0839633347E+01               0
GRID*                501               03.4481210011E+006.6603603389E+00+
*       2.0839634458E+01               0
GRID*                502               0-3.432664551E-017.4921187518E+00+
*       2.0839633331E+01               0
GRID*                503               0-4.042155501E+006.3174882689E+00+
*       2.0839633347E+01               0
GRID*                504               0-6.660360339E+003.4481210011E+00+
*       2.0839634458E+01               0
GRID*                505               0-7.492118752E+00-3.432664551E-01+
*       2.0839633331E+01               0
GRID*                506               0-6.317488269E+00-4.042155501E+00+
*       2.0839633347E+01               0
GRID*                507               0-3.448121001E+00-6.660360339E+00+
*       2.0839634458E+01               0
GRID*                508               03.4326645512E-01-7.492118752E+00+
*       2.0839633331E+01               0
GRID*                509               04.0421555010E+00-6.317488269E+00+
*       2.0839633347E+01               0
GRID*                510               06.6603603389E+00-3.448121001E+00+
*       2.0839634458E+01               0
GRID*                511               06.3173364260E+004.0423932532E+00+
*       1.4072375221E+01               0
GRID*                512               03.4478561558E+006.6604971387E+00+
*       1.4072376479E+01               0
GRID*                513               0-3.435494841E-017.4921059151E+00+
*       1.4072375233E+01               0
GRID*                514               0-4.042393253E+006.3173364260E+00+
*       1.4072375221E+01               0
GRID*                515               0-6.660497139E+003.4478561558E+00+
*       1.4072376479E+01               0
GRID*                516               0-7.492105915E+00-3.435494841E-01+
*       1.4072375233E+01               0
GRID*                517               0-6.317336426E+00-4.042393253E+00+
*       1.4072375221E+01               0
GRID*                518               0-3.447856156E+00-6.660497139E+00+
*       1.4072376479E+01               0
GRID*                519               03.4354948408E-01-7.492105915E+00+
*       1.4072375233E+01               0
GRID*                520               04.0423932532E+00-6.317336426E+00+
*       1.4072375221E+01               0
GRID*                521               06.6604971387E+00-3.447856156E+00+
*       1.4072376479E+01               0
GRID*                522               06.3171799873E+004.0426294677E+00+
*       8.5800653960E+00               0
GRID*                523               03.4476425914E+006.6606074750E+00+
*       8.5800660673E+00               0
GRID*                524               0-3.438326249E-017.4920884561E+00+
*       8.5800654177E+00               0
GRID*                525               0-4.042629468E+006.3171799873E+00+
*       8.5800653960E+00               0
GRID*                526               0-6.660607475E+003.4476425914E+00+
*       8.5800660673E+00               0
GRID*                527               0-7.492088456E+00-3.438326249E-01+
*       8.5800654177E+00               0
GRID*                528               0-6.317179987E+00-4.042629468E+00+
*       8.5800653960E+00               0
GRID*                529               0-3.447642591E+00-6.660607475E+00+
*       8.5800660673E+00               0
GRID*                530               03.4383262491E-01-7.492088456E+00+
*       8.5800654177E+00               0
GRID*                531               04.0426294677E+00-6.317179987E+00+
*       8.5800653960E+00               0
GRID*                532               06.6606074750E+00-3.447642591E+00+
*       8.5800660673E+00               0
GRID*                533               06.3170507011E+004.0428245871E+00+
*       4.0558449229E+00               0
GRID*                534               03.4474689540E+006.6606972329E+00+
*       4.0558450952E+00               0
GRID*                535               0-3.440663045E-017.4920740103E+00+
*       4.0558449398E+00               0
GRID*                536               0-4.042824587E+006.3170507011E+00+
*       4.0558449229E+00               0
GRID*                537               0-6.660697233E+003.4474689540E+00+
*       4.0558450952E+00               0
GRID*                538               0-7.492074010E+00-3.440663045E-01+
*       4.0558449398E+00               0
GRID*                539               0-6.317050701E+00-4.042824587E+00+
*       4.0558449229E+00               0
GRID*                540               0-3.447468954E+00-6.660697233E+00+
*       4.0558450952E+00               0
GRID*                541               03.4406630452E-01-7.492074010E+00+
*       4.0558449398E+00               0
GRID*                542               04.0428245871E+00-6.317050701E+00+
*       4.0558449229E+00               0
GRID*                543               06.6606972329E+00-3.447468954E+00+
*       4.0558450952E+00               0
GRID*                544               06.3196576592E+004.0387464128E+00+
*       1.4406741188E+02               0
GRID*                545               05.0579789582E+005.5377241522E+00+
*       1.4406741189E+02               0
GRID*                546               05.0580289832E+005.5376786528E+00+
*       1.4605144000E+02               0
GRID*                547               05.0579284649E+005.5377700101E+00+
*       1.4208338378E+02               0
GRID*                548               03.4517724229E+006.6584680717E+00+
*       1.4406741191E+02               0
GRID*                549               01.6128478103E+007.3244977685E+00+
*       1.4406741187E+02               0
GRID*                550               01.6129138683E+007.3244833670E+00+
*       1.4605143999E+02               0
GRID*                551               01.6127811720E+007.3245122458E+00+
*       1.4208338375E+02               0
GRID*                552               0-3.392310797E-017.4922935234E+00+
*       1.4406741186E+02               0
GRID*                553               0-2.267476239E+007.1490196216E+00+
*       1.4406741191E+02               0
GRID*                554               0-2.267412738E+007.1490397779E+00+
*       1.4605144002E+02               0
GRID*                555               0-2.267539979E+007.1489993834E+00+
*       1.4208338379E+02               0
GRID*                556               0-4.038746413E+006.3196576592E+00+
*       1.4406741188E+02               0
GRID*                557               0-5.537724152E+005.0579789582E+00+
*       1.4406741189E+02               0
GRID*                558               0-5.537678653E+005.0580289832E+00+
*       1.4605144000E+02               0
GRID*                559               0-5.537770010E+005.0579284649E+00+
*       1.4208338378E+02               0
GRID*                560               0-6.658468072E+003.4517724229E+00+
*       1.4406741191E+02               0
GRID*                561               0-7.324497768E+001.6128478103E+00+
*       1.4406741187E+02               0
GRID*                562               0-7.324483367E+001.6129138683E+00+
*       1.4605143999E+02               0
GRID*                563               0-7.324512246E+001.6127811720E+00+
*       1.4208338375E+02               0
GRID*                564               0-7.492293523E+00-3.392310797E-01+
*       1.4406741186E+02               0
GRID*                565               0-7.149019622E+00-2.267476239E+00+
*       1.4406741191E+02               0
GRID*                566               0-7.149039778E+00-2.267412738E+00+
*       1.4605144002E+02               0
GRID*                567               0-7.148999383E+00-2.267539979E+00+
*       1.4208338379E+02               0
GRID*                568               0-6.319657659E+00-4.038746413E+00+
*       1.4406741188E+02               0
GRID*                569               0-5.057978958E+00-5.537724152E+00+
*       1.4406741189E+02               0
GRID*                570               0-5.058028983E+00-5.537678653E+00+
*       1.4605144000E+02               0
GRID*                571               0-5.057928465E+00-5.537770010E+00+
*       1.4208338378E+02               0
GRID*                572               0-3.451772423E+00-6.658468072E+00+
*       1.4406741191E+02               0
GRID*                573               0-1.612847810E+00-7.324497768E+00+
*       1.4406741187E+02               0
GRID*                574               0-1.612913868E+00-7.324483367E+00+
*       1.4605143999E+02               0
GRID*                575               0-1.612781172E+00-7.324512246E+00+
*       1.4208338375E+02               0
GRID*                576               03.3923107968E-01-7.492293523E+00+
*       1.4406741186E+02               0
GRID*                577               02.2674762387E+00-7.149019622E+00+
*       1.4406741191E+02               0
GRID*                578               02.2674127382E+00-7.149039778E+00+
*       1.4605144002E+02               0
GRID*                579               02.2675399785E+00-7.148999383E+00+
*       1.4208338379E+02               0
GRID*                580               04.0387464128E+00-6.319657659E+00+
*       1.4406741188E+02               0
GRID*                581               05.5377241522E+00-5.057978958E+00+
*       1.4406741189E+02               0
GRID*                582               05.5376786528E+00-5.058028983E+00+
*       1.4605144000E+02               0
GRID*                583               05.5377700101E+00-5.057928465E+00+
*       1.4208338378E+02               0
GRID*                584               06.6584680717E+00-3.451772423E+00+
*       1.4406741191E+02               0
GRID*                585               06.3195831780E+004.0388621493E+00+
*       1.4007976675E+02               0
GRID*                586               05.0578770135E+005.5378166728E+00+
*       1.4007976675E+02               0
GRID*                587               05.0578251161E+005.5378636770E+00+
*       1.3807614974E+02               0
GRID*                588               03.4516528554E+006.6585300028E+00+
*       1.4007976675E+02               0
GRID*                589               01.6127133061E+007.3245269404E+00+
*       1.4007976673E+02               0
GRID*                590               01.6126448874E+007.3245417072E+00+
*       1.3807614971E+02               0
GRID*                591               0-3.393685876E-017.4922868596E+00+
*       1.4007976671E+02               0
GRID*                592               0-2.267604578E+007.1489788665E+00+
*       1.4007976675E+02               0
GRID*                593               0-2.267669394E+007.1489582748E+00+
*       1.3807614971E+02               0
GRID*                594               0-4.038862149E+006.3195831780E+00+
*       1.4007976675E+02               0
GRID*                595               0-5.537816673E+005.0578770135E+00+
*       1.4007976675E+02               0
GRID*                596               0-5.537863677E+005.0578251161E+00+
*       1.3807614974E+02               0
GRID*                597               0-6.658530003E+003.4516528554E+00+
*       1.4007976675E+02               0
GRID*                598               0-7.324526940E+001.6127133061E+00+
*       1.4007976673E+02               0
GRID*                599               0-7.324541707E+001.6126448874E+00+
*       1.3807614971E+02               0
GRID*                600               0-7.492286860E+00-3.393685876E-01+
*       1.4007976671E+02               0
GRID*                601               0-7.148978866E+00-2.267604578E+00+
*       1.4007976675E+02               0
GRID*                602               0-7.148958275E+00-2.267669394E+00+
*       1.3807614971E+02               0
GRID*                603               0-6.319583178E+00-4.038862149E+00+
*       1.4007976675E+02               0
GRID*                604               0-5.057877014E+00-5.537816673E+00+
*       1.4007976675E+02               0
GRID*                605               0-5.057825116E+00-5.537863677E+00+
*       1.3807614974E+02               0
GRID*                606               0-3.451652855E+00-6.658530003E+00+
*       1.4007976675E+02               0
GRID*                607               0-1.612713306E+00-7.324526940E+00+
*       1.4007976673E+02               0
GRID*                608               0-1.612644887E+00-7.324541707E+00+
*       1.3807614971E+02               0
GRID*                609               03.3936858759E-01-7.492286860E+00+
*       1.4007976671E+02               0
GRID*                610               02.2676045776E+00-7.148978866E+00+
*       1.4007976675E+02               0
GRID*                611               02.2676693945E+00-7.148958275E+00+
*       1.3807614971E+02               0
GRID*                612               04.0388621493E+00-6.319583178E+00+
*       1.4007976675E+02               0
GRID*                613               05.5378166728E+00-5.057877014E+00+
*       1.4007976675E+02               0
GRID*                614               05.5378636770E+00-5.057825116E+00+
*       1.3807614974E+02               0
GRID*                615               06.6585300028E+00-3.451652855E+00+
*       1.4007976675E+02               0
GRID*                616               06.3195064072E+004.0389810960E+00+
*       1.3604292151E+02               0
GRID*                617               05.0577720124E+005.5379117123E+00+
*       1.3604292152E+02               0
GRID*                618               05.0577184830E+005.5379600735E+00+
*       1.3400969330E+02               0
GRID*                619               03.4515309787E+006.6585931060E+00+
*       1.3604292146E+02               0
GRID*                620               01.6125749130E+007.3245567633E+00+
*       1.3604292148E+02               0
GRID*                621               01.6125044108E+007.3245718882E+00+
*       1.3400969327E+02               0
GRID*                622               0-3.395100379E-017.4922798156E+00+
*       1.3604292147E+02               0
GRID*                623               0-2.267735378E+007.1489373072E+00+
*       1.3604292146E+02               0
GRID*                624               0-2.267801558E+007.1489162723E+00+
*       1.3400969321E+02               0
GRID*                625               0-4.038981096E+006.3195064072E+00+
*       1.3604292151E+02               0
GRID*                626               0-5.537911712E+005.0577720124E+00+
*       1.3604292152E+02               0
GRID*                627               0-5.537960073E+005.0577184830E+00+
*       1.3400969330E+02               0
GRID*                628               0-6.658593106E+003.4515309787E+00+
*       1.3604292146E+02               0
GRID*                629               0-7.324556763E+001.6125749130E+00+
*       1.3604292148E+02               0
GRID*                630               0-7.324571888E+001.6125044108E+00+
*       1.3400969327E+02               0
GRID*                631               0-7.492279816E+00-3.395100379E-01+
*       1.3604292147E+02               0
GRID*                632               0-7.148937307E+00-2.267735378E+00+
*       1.3604292146E+02               0
GRID*                633               0-7.148916272E+00-2.267801558E+00+
*       1.3400969321E+02               0
GRID*                634               0-6.319506407E+00-4.038981096E+00+
*       1.3604292151E+02               0
GRID*                635               0-5.057772012E+00-5.537911712E+00+
*       1.3604292152E+02               0
GRID*                636               0-5.057718483E+00-5.537960073E+00+
*       1.3400969330E+02               0
GRID*                637               0-3.451530979E+00-6.658593106E+00+
*       1.3604292146E+02               0
GRID*                638               0-1.612574913E+00-7.324556763E+00+
*       1.3604292148E+02               0
GRID*                639               0-1.612504411E+00-7.324571888E+00+
*       1.3400969327E+02               0
GRID*                640               03.3951003791E-01-7.492279816E+00+
*       1.3604292147E+02               0
GRID*                641               02.2677353780E+00-7.148937307E+00+
*       1.3604292146E+02               0
GRID*                642               02.2678015576E+00-7.148916272E+00+
*       1.3400969321E+02               0
GRID*                643               04.0389810960E+00-6.319506407E+00+
*       1.3604292151E+02               0
GRID*                644               05.5379117123E+00-5.057772012E+00+
*       1.3604292152E+02               0
GRID*                645               05.5379600735E+00-5.057718483E+00+
*       1.3400969330E+02               0
GRID*                646               06.6585931060E+00-3.451530979E+00+
*       1.3604292146E+02               0
GRID*                647               06.3194270032E+004.0391037955E+00+
*       1.3193656965E+02               0
GRID*                648               05.0576634828E+005.5380097054E+00+
*       1.3193656965E+02               0
GRID*                649               05.0576080767E+005.5380596480E+00+
*       1.2986344601E+02               0
GRID*                650               03.4514062514E+006.6586576634E+00+
*       1.3193656951E+02               0
GRID*                651               01.6124320042E+007.3245873779E+00+
*       1.3193656961E+02               0
GRID*                652               01.6123590942E+007.3246029331E+00+
*       1.2986344597E+02               0
GRID*                653               0-3.396560716E-017.4922723651E+00+
*       1.3193656960E+02               0
GRID*                654               0-2.267869222E+007.1488947605E+00+
*       1.3193656951E+02               0
GRID*                655               0-2.267937060E+007.1488731892E+00+
*       1.2986344581E+02               0
GRID*                656               0-4.039103796E+006.3194270032E+00+
*       1.3193656965E+02               0
GRID*                657               0-5.538009705E+005.0576634828E+00+
*       1.3193656965E+02               0
GRID*                658               0-5.538059648E+005.0576080767E+00+
*       1.2986344601E+02               0
GRID*                659               0-6.658657663E+003.4514062514E+00+
*       1.3193656951E+02               0
GRID*                660               0-7.324587378E+001.6124320042E+00+
*       1.3193656961E+02               0
GRID*                661               0-7.324602933E+001.6123590942E+00+
*       1.2986344597E+02               0
GRID*                662               0-7.492272365E+00-3.396560716E-01+
*       1.3193656960E+02               0
GRID*                663               0-7.148894760E+00-2.267869222E+00+
*       1.3193656951E+02               0
GRID*                664               0-7.148873189E+00-2.267937060E+00+
*       1.2986344581E+02               0
GRID*                665               0-6.319427003E+00-4.039103796E+00+
*       1.3193656965E+02               0
GRID*                666               0-5.057663483E+00-5.538009705E+00+
*       1.3193656965E+02               0
GRID*                667               0-5.057608077E+00-5.538059648E+00+
*       1.2986344601E+02               0
GRID*                668               0-3.451406251E+00-6.658657663E+00+
*       1.3193656951E+02               0
GRID*                669               0-1.612432004E+00-7.324587378E+00+
*       1.3193656961E+02               0
GRID*                670               0-1.612359094E+00-7.324602933E+00+
*       1.2986344597E+02               0
GRID*                671               03.3965607162E-01-7.492272365E+00+
*       1.3193656960E+02               0
GRID*                672               02.2678692224E+00-7.148894760E+00+
*       1.3193656951E+02               0
GRID*                673               02.2679370601E+00-7.148873189E+00+
*       1.2986344581E+02               0
GRID*                674               04.0391037955E+00-6.319427003E+00+
*       1.3193656965E+02               0
GRID*                675               05.5380097054E+00-5.057663483E+00+
*       1.3193656965E+02               0
GRID*                676               05.5380596480E+00-5.057608077E+00+
*       1.2986344601E+02               0
GRID*                677               06.6586576634E+00-3.451406251E+00+
*       1.3193656951E+02               0
GRID*                678               06.3193445973E+004.0392308261E+00+
*       1.2773981467E+02               0
GRID*                679               05.0575509194E+005.5381111145E+00+
*       1.2773981468E+02               0
GRID*                680               05.0574933764E+005.5381628763E+00+
*       1.2561618335E+02               0
GRID*                681               03.4512781135E+006.6587239664E+00+
*       1.2773981442E+02               0
GRID*                682               01.6122839102E+007.3246189322E+00+
*       1.2773981463E+02               0
GRID*                683               01.6122082479E+007.3246349936E+00+
*       1.2561618331E+02               0
GRID*                684               0-3.398073733E-017.4922644778E+00+
*       1.2773981462E+02               0
GRID*                685               0-2.268006713E+007.1488510364E+00+
*       1.2773981442E+02               0
GRID*                686               0-2.268076513E+007.1488288329E+00+
*       1.2561618303E+02               0
GRID*                687               0-4.039230826E+006.3193445973E+00+
*       1.2773981467E+02               0
GRID*                688               0-5.538111115E+005.0575509194E+00+
*       1.2773981468E+02               0
GRID*                689               0-5.538162876E+005.0574933764E+00+
*       1.2561618335E+02               0
GRID*                690               0-6.658723966E+003.4512781135E+00+
*       1.2773981442E+02               0
GRID*                691               0-7.324618932E+001.6122839102E+00+
*       1.2773981463E+02               0
GRID*                692               0-7.324634994E+001.6122082479E+00+
*       1.2561618331E+02               0
GRID*                693               0-7.492264478E+00-3.398073733E-01+
*       1.2773981462E+02               0
GRID*                694               0-7.148851036E+00-2.268006713E+00+
*       1.2773981442E+02               0
GRID*                695               0-7.148828833E+00-2.268076513E+00+
*       1.2561618303E+02               0
GRID*                696               0-6.319344597E+00-4.039230826E+00+
*       1.2773981467E+02               0
GRID*                697               0-5.057550919E+00-5.538111115E+00+
*       1.2773981468E+02               0
GRID*                698               0-5.057493376E+00-5.538162876E+00+
*       1.2561618335E+02               0
GRID*                699               0-3.451278113E+00-6.658723966E+00+
*       1.2773981442E+02               0
GRID*                700               0-1.612283910E+00-7.324618932E+00+
*       1.2773981463E+02               0
GRID*                701               0-1.612208248E+00-7.324634994E+00+
*       1.2561618331E+02               0
GRID*                702               03.3980737331E-01-7.492264478E+00+
*       1.2773981462E+02               0
GRID*                703               02.2680067129E+00-7.148851036E+00+
*       1.2773981442E+02               0
GRID*                704               02.2680765126E+00-7.148828833E+00+
*       1.2561618303E+02               0
GRID*                705               04.0392308261E+00-6.319344597E+00+
*       1.2773981467E+02               0
GRID*                706               05.5381111145E+00-5.057550919E+00+
*       1.2773981468E+02               0
GRID*                707               05.5381628763E+00-5.057493376E+00+
*       1.2561618335E+02               0
GRID*                708               06.6587239664E+00-3.451278113E+00+
*       1.2773981442E+02               0
GRID*                709               06.3192587981E+004.0393627983E+00+
*       1.2343106069E+02               0
GRID*                710               05.0574337865E+005.5382164280E+00+
*       1.2343106070E+02               0
GRID*                711               05.0573738334E+005.5382702576E+00+
*       1.2124593805E+02               0
GRID*                712               03.4511459900E+006.6587923145E+00+
*       1.2343106030E+02               0
GRID*                713               01.6121299226E+007.3246515815E+00+
*       1.2343106065E+02               0
GRID*                714               01.6120511468E+007.3246682279E+00+
*       1.2124593800E+02               0
GRID*                715               0-3.399646669E-017.4922561201E+00+
*       1.2343106064E+02               0
GRID*                716               0-2.268148468E+007.1488059402E+00+
*       1.2343106030E+02               0
GRID*                717               0-2.268220539E+007.1487830071E+00+
*       1.2124593757E+02               0
GRID*                718               0-4.039362798E+006.3192587981E+00+
*       1.2343106069E+02               0
GRID*                719               0-5.538216428E+005.0574337865E+00+
*       1.2343106070E+02               0
GRID*                720               0-5.538270258E+005.0573738334E+00+
*       1.2124593805E+02               0
GRID*                721               0-6.658792315E+003.4511459900E+00+
*       1.2343106030E+02               0
GRID*                722               0-7.324651581E+001.6121299226E+00+
*       1.2343106065E+02               0
GRID*                723               0-7.324668228E+001.6120511468E+00+
*       1.2124593800E+02               0
GRID*                724               0-7.492256120E+00-3.399646669E-01+
*       1.2343106064E+02               0
GRID*                725               0-7.148805940E+00-2.268148468E+00+
*       1.2343106030E+02               0
GRID*                726               0-7.148783007E+00-2.268220539E+00+
*       1.2124593757E+02               0
GRID*                727               0-6.319258798E+00-4.039362798E+00+
*       1.2343106069E+02               0
GRID*                728               0-5.057433786E+00-5.538216428E+00+
*       1.2343106070E+02               0
GRID*                729               0-5.057373833E+00-5.538270258E+00+
*       1.2124593805E+02               0
GRID*                730               0-3.451145990E+00-6.658792315E+00+
*       1.2343106030E+02               0
GRID*                731               0-1.612129923E+00-7.324651581E+00+
*       1.2343106065E+02               0
GRID*                732               0-1.612051147E+00-7.324668228E+00+
*       1.2124593800E+02               0
GRID*                733               03.3996466692E-01-7.492256120E+00+
*       1.2343106064E+02               0
GRID*                734               02.2681484677E+00-7.148805940E+00+
*       1.2343106030E+02               0
GRID*                735               02.2682205391E+00-7.148783007E+00+
*       1.2124593757E+02               0
GRID*                736               04.0393627983E+00-6.319258798E+00+
*       1.2343106069E+02               0
GRID*                737               05.5382164280E+00-5.057433786E+00+
*       1.2343106070E+02               0
GRID*                738               05.5382702576E+00-5.057373833E+00+
*       1.2124593805E+02               0
GRID*                739               06.6587923145E+00-3.451145990E+00+
*       1.2343106030E+02               0
GRID*                740               06.3191691970E+004.0395003487E+00+
*       1.1898795984E+02               0
GRID*                741               05.0573115249E+005.5383261545E+00+
*       1.1898795985E+02               0
GRID*                742               05.0572488805E+005.5383823083E+00+
*       1.1672998165E+02               0
GRID*                743               03.4510092982E+006.6588630115E+00+
*       1.1898795927E+02               0
GRID*                744               01.6119693023E+007.3246854869E+00+
*       1.1898795980E+02               0
GRID*                745               01.6118870408E+007.3247027999E+00+
*       1.1672998160E+02               0
GRID*                746               0-3.401287074E-017.4922472565E+00+
*       1.1898795979E+02               0
GRID*                747               0-2.268295114E+007.1487592745E+00+
*       1.1898795927E+02               0
GRID*                748               0-2.268369767E+007.1487355144E+00+
*       1.1672998098E+02               0
GRID*                749               0-4.039500349E+006.3191691970E+00+
*       1.1898795984E+02               0
GRID*                750               0-5.538326155E+005.0573115249E+00+
*       1.1898795985E+02               0
GRID*                751               0-5.538382308E+005.0572488805E+00+
*       1.1672998165E+02               0
GRID*                752               0-6.658863011E+003.4510092982E+00+
*       1.1898795927E+02               0
GRID*                753               0-7.324685487E+001.6119693023E+00+
*       1.1898795980E+02               0
GRID*                754               0-7.324702800E+001.6118870408E+00+
*       1.1672998160E+02               0
GRID*                755               0-7.492247256E+00-3.401287074E-01+
*       1.1898795979E+02               0
GRID*                756               0-7.148759275E+00-2.268295114E+00+
*       1.1898795927E+02               0
GRID*                757               0-7.148735514E+00-2.268369767E+00+
*       1.1672998098E+02               0
GRID*                758               0-6.319169197E+00-4.039500349E+00+
*       1.1898795984E+02               0
GRID*                759               0-5.057311525E+00-5.538326154E+00+
*       1.1898795985E+02               0
GRID*                760               0-5.057248880E+00-5.538382308E+00+
*       1.1672998165E+02               0
GRID*                761               0-3.451009298E+00-6.658863011E+00+
*       1.1898795927E+02               0
GRID*                762               0-1.611969302E+00-7.324685487E+00+
*       1.1898795980E+02               0
GRID*                763               0-1.611887041E+00-7.324702800E+00+
*       1.1672998160E+02               0
GRID*                764               03.4012870743E-01-7.492247256E+00+
*       1.1898795979E+02               0
GRID*                765               02.2682951136E+00-7.148759275E+00+
*       1.1898795927E+02               0
GRID*                766               02.2683697667E+00-7.148735514E+00+
*       1.1672998098E+02               0
GRID*                767               04.0395003487E+00-6.319169197E+00+
*       1.1898795984E+02               0
GRID*                768               05.5383261545E+00-5.057311525E+00+
*       1.1898795985E+02               0
GRID*                769               05.5383823083E+00-5.057248880E+00+
*       1.1672998165E+02               0
GRID*                770               06.6588630115E+00-3.451009298E+00+
*       1.1898795927E+02               0
GRID*                771               06.3190753772E+004.0396441284E+00+
*       1.1438744384E+02               0
GRID*                772               05.0571835641E+005.5384408142E+00+
*       1.1438744385E+02               0
GRID*                773               05.0571179465E+005.5384995501E+00+
*       1.1204490606E+02               0
GRID*                774               03.4508674600E+006.6589363592E+00+
*       1.1438744307E+02               0
GRID*                775               01.6118012941E+007.3247208138E+00+
*       1.1438744380E+02               0
GRID*                776               01.6117151734E+007.3247388761E+00+
*       1.1204490601E+02               0
GRID*                777               0-3.403002662E-017.4922378511E+00+
*       1.1438744380E+02               0
GRID*                778               0-2.268447273E+007.1487108442E+00+
*       1.1438744307E+02               0
GRID*                779               0-2.268524810E+007.1486861626E+00+
*       1.1204490517E+02               0
GRID*                780               0-4.039644128E+006.3190753772E+00+
*       1.1438744384E+02               0
GRID*                781               0-5.538440814E+005.0571835641E+00+
*       1.1438744385E+02               0
GRID*                782               0-5.538499550E+005.0571179465E+00+
*       1.1204490606E+02               0
GRID*                783               0-6.658936359E+003.4508674600E+00+
*       1.1438744307E+02               0
GRID*                784               0-7.324720814E+001.6118012941E+00+
*       1.1438744380E+02               0
GRID*                785               0-7.324738876E+001.6117151734E+00+
*       1.1204490601E+02               0
GRID*                786               0-7.492237851E+00-3.403002662E-01+
*       1.1438744380E+02               0
GRID*                787               0-7.148710844E+00-2.268447273E+00+
*       1.1438744307E+02               0
GRID*                788               0-7.148686163E+00-2.268524810E+00+
*       1.1204490517E+02               0
GRID*                789               0-6.319075377E+00-4.039644128E+00+
*       1.1438744384E+02               0
GRID*                790               0-5.057183564E+00-5.538440814E+00+
*       1.1438744385E+02               0
GRID*                791               0-5.057117946E+00-5.538499550E+00+
*       1.1204490606E+02               0
GRID*                792               0-3.450867460E+00-6.658936359E+00+
*       1.1438744307E+02               0
GRID*                793               0-1.611801294E+00-7.324720814E+00+
*       1.1438744380E+02               0
GRID*                794               0-1.611715173E+00-7.324738876E+00+
*       1.1204490601E+02               0
GRID*                795               03.4030026619E-01-7.492237851E+00+
*       1.1438744380E+02               0
GRID*                796               02.2684472729E+00-7.148710844E+00+
*       1.1438744307E+02               0
GRID*                797               02.2685248099E+00-7.148686163E+00+
*       1.1204490517E+02               0
GRID*                798               04.0396441283E+00-6.319075377E+00+
*       1.1438744384E+02               0
GRID*                799               05.5384408142E+00-5.057183564E+00+
*       1.1438744385E+02               0
GRID*                800               05.5384995501E+00-5.057117946E+00+
*       1.1204490606E+02               0
GRID*                801               06.6589363592E+00-3.450867460E+00+
*       1.1438744307E+02               0
GRID*                802               06.3189769272E+004.0397947832E+00+
*       1.0960587624E+02               0
GRID*                803               05.0570493404E+005.5385609236E+00+
*       1.0960587626E+02               0
GRID*                804               05.0569804797E+005.5386224914E+00+
*       1.0716684646E+02               0
GRID*                805               03.4507199218E+006.6590126479E+00+
*       1.0960587524E+02               0
GRID*                806               01.6116251504E+007.3247577282E+00+
*       1.0960587621E+02               0
GRID*                807               01.6115348109E+007.3247766211E+00+
*       1.0716684641E+02               0
GRID*                808               0-3.404801070E-017.4922278708E+00+
*       1.0960587621E+02               0
GRID*                809               0-2.268605542E+007.1486604629E+00+
*       1.0960587524E+02               0
GRID*                810               0-2.268686243E+007.1486347731E+00+
*       1.0716684532E+02               0
GRID*                811               0-4.039794783E+006.3189769272E+00+
*       1.0960587624E+02               0
GRID*                812               0-5.538560924E+005.0570493404E+00+
*       1.0960587626E+02               0
GRID*                813               0-5.538622491E+005.0569804797E+00+
*       1.0716684646E+02               0
GRID*                814               0-6.659012648E+003.4507199218E+00+
*       1.0960587524E+02               0
GRID*                815               0-7.324757728E+001.6116251504E+00+
*       1.0960587621E+02               0
GRID*                816               0-7.324776621E+001.6115348109E+00+
*       1.0716684641E+02               0
GRID*                817               0-7.492227871E+00-3.404801070E-01+
*       1.0960587621E+02               0
GRID*                818               0-7.148660463E+00-2.268605542E+00+
*       1.0960587524E+02               0
GRID*                819               0-7.148634773E+00-2.268686243E+00+
*       1.0716684532E+02               0
GRID*                820               0-6.318976927E+00-4.039794783E+00+
*       1.0960587624E+02               0
GRID*                821               0-5.057049340E+00-5.538560924E+00+
*       1.0960587626E+02               0
GRID*                822               0-5.056980480E+00-5.538622491E+00+
*       1.0716684646E+02               0
GRID*                823               0-3.450719922E+00-6.659012648E+00+
*       1.0960587524E+02               0
GRID*                824               0-1.611625150E+00-7.324757728E+00+
*       1.0960587621E+02               0
GRID*                825               0-1.611534811E+00-7.324776621E+00+
*       1.0716684641E+02               0
GRID*                826               03.4048010698E-01-7.492227871E+00+
*       1.0960587621E+02               0
GRID*                827               02.2686055423E+00-7.148660463E+00+
*       1.0960587524E+02               0
GRID*                828               02.2686862430E+00-7.148634773E+00+
*       1.0716684532E+02               0
GRID*                829               04.0397947832E+00-6.318976927E+00+
*       1.0960587624E+02               0
GRID*                830               05.5385609236E+00-5.057049340E+00+
*       1.0960587626E+02               0
GRID*                831               05.5386224914E+00-5.056980480E+00+
*       1.0716684646E+02               0
GRID*                832               06.6590126479E+00-3.450719922E+00+
*       1.0960587524E+02               0
GRID*                833               06.3188734635E+004.0399529239E+00+
*       1.0461937220E+02               0
GRID*                834               05.0569083270E+005.5386869721E+00+
*       1.0461937222E+02               0
GRID*                835               05.0568359837E+005.5387515979E+00+
*       1.0207189798E+02               0
GRID*                836               03.4505661858E+006.6590921406E+00+
*       1.0461937094E+02               0
GRID*                837               01.6114401681E+007.3247963908E+00+
*       1.0461937217E+02               0
GRID*                838               01.6113452880E+007.3248161907E+00+
*       1.0207189793E+02               0
GRID*                839               0-3.406689484E-017.4922172889E+00+
*       1.0461937217E+02               0
GRID*                840               0-2.268770460E+007.1486079646E+00+
*       1.0461937094E+02               0
GRID*                841               0-2.268854561E+007.1485811943E+00+
*       1.0207189656E+02               0
GRID*                842               0-4.039952924E+006.3188734635E+00+
*       1.0461937220E+02               0
GRID*                843               0-5.538686972E+005.0569083270E+00+
*       1.0461937222E+02               0
GRID*                844               0-5.538751598E+005.0568359837E+00+
*       1.0207189798E+02               0
GRID*                845               0-6.659092141E+003.4505661858E+00+
*       1.0461937094E+02               0
GRID*                846               0-7.324796391E+001.6114401681E+00+
*       1.0461937217E+02               0
GRID*                847               0-7.324816191E+001.6113452880E+00+
*       1.0207189793E+02               0
GRID*                848               0-7.492217289E+00-3.406689484E-01+
*       1.0461937217E+02               0
GRID*                849               0-7.148607965E+00-2.268770460E+00+
*       1.0461937094E+02               0
GRID*                850               0-7.148581194E+00-2.268854561E+00+
*       1.0207189656E+02               0
GRID*                851               0-6.318873463E+00-4.039952924E+00+
*       1.0461937220E+02               0
GRID*                852               0-5.056908327E+00-5.538686972E+00+
*       1.0461937222E+02               0
GRID*                853               0-5.056835984E+00-5.538751598E+00+
*       1.0207189798E+02               0
GRID*                854               0-3.450566186E+00-6.659092141E+00+
*       1.0461937094E+02               0
GRID*                855               0-1.611440168E+00-7.324796391E+00+
*       1.0461937217E+02               0
GRID*                856               0-1.611345288E+00-7.324816191E+00+
*       1.0207189793E+02               0
GRID*                857               03.4066894841E-01-7.492217289E+00+
*       1.0461937217E+02               0
GRID*                858               02.2687704598E+00-7.148607965E+00+
*       1.0461937094E+02               0
GRID*                859               02.2688545613E+00-7.148581194E+00+
*       1.0207189656E+02               0
GRID*                860               04.0399529239E+00-6.318873463E+00+
*       1.0461937220E+02               0
GRID*                861               05.5386869721E+00-5.056908327E+00+
*       1.0461937222E+02               0
GRID*                862               05.5387515979E+00-5.056835984E+00+
*       1.0207189798E+02               0
GRID*                863               06.6590921406E+00-3.450566186E+00+
*       1.0461937094E+02               0
GRID*                864               06.3187646635E+004.0401190806E+00+
*       9.9404342890E+01               0
GRID*                865               05.0567600775E+005.5388193860E+00+
*       9.9404342907E+01               0
GRID*                866               05.0566840706E+005.5388872500E+00+
*       9.6736787838E+01               0
GRID*                867               03.4504058558E+006.6591750495E+00+
*       9.9404341331E+01               0
GRID*                868               01.6112457444E+007.3248369481E+00+
*       9.9404342856E+01               0
GRID*                869               01.6111460745E+007.3248577211E+00+
*       9.6736787787E+01               0
GRID*                870               0-3.408674074E-017.4922060914E+00+
*       9.9404342863E+01               0
GRID*                871               0-2.268942456E+007.1485532194E+00+
*       9.9404341331E+01               0
GRID*                872               0-2.269030121E+007.1485253210E+00+
*       9.6736786104E+01               0
GRID*                873               0-4.040119081E+006.3187646635E+00+
*       9.9404342890E+01               0
GRID*                874               0-5.538819386E+005.0567600775E+00+
*       9.9404342907E+01               0
GRID*                875               0-5.538887250E+005.0566840706E+00+
*       9.6736787838E+01               0
GRID*                876               0-6.659175050E+003.4504058558E+00+
*       9.9404341331E+01               0
GRID*                877               0-7.324836948E+001.6112457444E+00+
*       9.9404342856E+01               0
GRID*                878               0-7.324857721E+001.6111460745E+00+
*       9.6736787787E+01               0
GRID*                879               0-7.492206091E+00-3.408674074E-01+
*       9.9404342863E+01               0
GRID*                880               0-7.148553219E+00-2.268942456E+00+
*       9.9404341331E+01               0
GRID*                881               0-7.148525321E+00-2.269030121E+00+
*       9.6736786104E+01               0
GRID*                882               0-6.318764664E+00-4.040119081E+00+
*       9.9404342890E+01               0
GRID*                883               0-5.056760078E+00-5.538819386E+00+
*       9.9404342907E+01               0
GRID*                884               0-5.056684071E+00-5.538887250E+00+
*       9.6736787838E+01               0
GRID*                885               0-3.450405856E+00-6.659175050E+00+
*       9.9404341331E+01               0
GRID*                886               0-1.611245744E+00-7.324836948E+00+
*       9.9404342856E+01               0
GRID*                887               0-1.611146074E+00-7.324857721E+00+
*       9.6736787787E+01               0
GRID*                888               03.4086740745E-01-7.492206091E+00+
*       9.9404342863E+01               0
GRID*                889               02.2689424556E+00-7.148553219E+00+
*       9.9404341331E+01               0
GRID*                890               02.2690301214E+00-7.148525321E+00+
*       9.6736786104E+01               0
GRID*                891               04.0401190806E+00-6.318764664E+00+
*       9.9404342890E+01               0
GRID*                892               05.5388193860E+00-5.056760078E+00+
*       9.9404342907E+01               0
GRID*                893               05.5388872500E+00-5.056684071E+00+
*       9.6736787838E+01               0
GRID*                894               06.6591750495E+00-3.450405856E+00+
*       9.9404341331E+01               0
GRID*                895               06.3186503136E+004.0402936357E+00+
*       9.3938328135E+01               0
GRID*                896               05.0566042906E+005.5389584761E+00+
*       9.3938328154E+01               0
GRID*                897               05.0565245375E+005.5390296801E+00+
*       9.1139868469E+01               0
GRID*                898               03.4502387044E+006.6592615032E+00+
*       9.3938326252E+01               0
GRID*                899               01.6110414578E+007.3248795196E+00+
*       9.3938328103E+01               0
GRID*                900               01.6109368723E+007.3249013129E+00+
*       9.1139868419E+01               0
GRID*                901               0-3.410759170E-017.4921942849E+00+
*       9.3938328114E+01               0
GRID*                902               0-2.269121781E+007.1484961572E+00+
*       9.3938326252E+01               0
GRID*                903               0-2.269213057E+007.1484671229E+00+
*       9.1139866396E+01               0
GRID*                904               0-4.040293636E+006.3186503136E+00+
*       9.3938328135E+01               0
GRID*                905               0-5.538958476E+005.0566042906E+00+
*       9.3938328154E+01               0
GRID*                906               0-5.539029680E+005.0565245375E+00+
*       9.1139868469E+01               0
GRID*                907               0-6.659261503E+003.4502387044E+00+
*       9.3938326252E+01               0
GRID*                908               0-7.324879520E+001.6110414578E+00+
*       9.3938328103E+01               0
GRID*                909               0-7.324901313E+001.6109368723E+00+
*       9.1139868419E+01               0
GRID*                910               0-7.492194285E+00-3.410759170E-01+
*       9.3938328114E+01               0
GRID*                911               0-7.148496157E+00-2.269121781E+00+
*       9.3938326252E+01               0
GRID*                912               0-7.148467123E+00-2.269213057E+00+
*       9.1139866396E+01               0
GRID*                913               0-6.318650314E+00-4.040293636E+00+
*       9.3938328135E+01               0
GRID*                914               0-5.056604291E+00-5.538958476E+00+
*       9.3938328154E+01               0
GRID*                915               0-5.056524537E+00-5.539029680E+00+
*       9.1139868469E+01               0
GRID*                916               0-3.450238704E+00-6.659261503E+00+
*       9.3938326252E+01               0
GRID*                917               0-1.611041458E+00-7.324879520E+00+
*       9.3938328103E+01               0
GRID*                918               0-1.610936872E+00-7.324901313E+00+
*       9.1139868419E+01               0
GRID*                919               03.4107591704E-01-7.492194285E+00+
*       9.3938328114E+01               0
GRID*                920               02.2691217813E+00-7.148496157E+00+
*       9.3938326252E+01               0
GRID*                921               02.2692130569E+00-7.148467123E+00+
*       9.1139866396E+01               0
GRID*                922               04.0402936357E+00-6.318650314E+00+
*       9.3938328135E+01               0
GRID*                923               05.5389584761E+00-5.056604291E+00+
*       9.3938328154E+01               0
GRID*                924               05.5390296801E+00-5.056524537E+00+
*       9.1139868469E+01               0
GRID*                925               06.6592615032E+00-3.450238704E+00+
*       9.3938326252E+01               0
GRID*                926               06.3185303776E+004.0404767293E+00+
*       8.8201178327E+01               0
GRID*                927               05.0564409011E+005.5391043637E+00+
*       8.8201178348E+01               0
GRID*                928               05.0563574743E+005.5391788848E+00+
*       8.5262488223E+01               0
GRID*                929               03.4500647675E+006.6593514987E+00+
*       8.8201176094E+01               0
GRID*                930               01.6108271836E+007.3249241788E+00+
*       8.8201178298E+01               0
GRID*                931               01.6107177517E+007.3249470097E+00+
*       8.5262488174E+01               0
GRID*                932               0-3.412946089E-017.4921819092E+00+
*       8.8201178313E+01               0
GRID*                933               0-2.269308410E+007.1484368014E+00+
*       8.8201176094E+01               0
GRID*                934               0-2.269403160E+007.1484066834E+00+
*       8.5262485788E+01               0
GRID*                935               0-4.040476729E+006.3185303776E+00+
*       8.8201178327E+01               0
GRID*                936               0-5.539104364E+005.0564409011E+00+
*       8.8201178348E+01               0
GRID*                937               0-5.539178885E+005.0563574743E+00+
*       8.5262488223E+01               0
GRID*                938               0-6.659351499E+003.4500647675E+00+
*       8.8201176094E+01               0
GRID*                939               0-7.324924179E+001.6108271836E+00+
*       8.8201178298E+01               0
GRID*                940               0-7.324947010E+001.6107177517E+00+
*       8.5262488174E+01               0
GRID*                941               0-7.492181909E+00-3.412946089E-01+
*       8.8201178313E+01               0
GRID*                942               0-7.148436801E+00-2.269308410E+00+
*       8.8201176094E+01               0
GRID*                943               0-7.148406683E+00-2.269403160E+00+
*       8.5262485788E+01               0
GRID*                944               0-6.318530378E+00-4.040476729E+00+
*       8.8201178327E+01               0
GRID*                945               0-5.056440901E+00-5.539104364E+00+
*       8.8201178348E+01               0
GRID*                946               0-5.056357474E+00-5.539178885E+00+
*       8.5262488223E+01               0
GRID*                947               0-3.450064767E+00-6.659351499E+00+
*       8.8201176094E+01               0
GRID*                948               0-1.610827184E+00-7.324924179E+00+
*       8.8201178298E+01               0
GRID*                949               0-1.610717752E+00-7.324947010E+00+
*       8.5262488174E+01               0
GRID*                950               03.4129460893E-01-7.492181909E+00+
*       8.8201178313E+01               0
GRID*                951               02.2693084097E+00-7.148436801E+00+
*       8.8201176094E+01               0
GRID*                952               02.2694031602E+00-7.148406683E+00+
*       8.5262485788E+01               0
GRID*                953               04.0404767293E+00-6.318530378E+00+
*       8.8201178327E+01               0
GRID*                954               05.5391043637E+00-5.056440901E+00+
*       8.8201178348E+01               0
GRID*                955               05.5391788848E+00-5.056357474E+00+
*       8.5262488223E+01               0
GRID*                956               06.6593514987E+00-3.450064767E+00+
*       8.8201176094E+01               0
GRID*                957               06.3184050926E+004.0406681275E+00+
*       8.2176626934E+01               0
GRID*                958               05.0562702075E+005.5392568769E+00+
*       8.2176626956E+01               0
GRID*                959               05.0561834144E+005.5393345037E+00+
*       7.9090765680E+01               0
GRID*                960               03.4498844759E+006.6594448352E+00+
*       8.2176624331E+01               0
GRID*                961               01.6106032547E+007.3249709279E+00+
*       8.2176626908E+01               0
GRID*                962               01.6104893406E+007.3249947680E+00+
*       7.9090765635E+01               0
GRID*                963               0-3.415231505E-017.4921690537E+00+
*       8.2176626926E+01               0
GRID*                964               0-2.269501894E+007.1483753147E+00+
*       8.2176624331E+01               0
GRID*                965               0-2.269599717E+007.1483442546E+00+
*       7.9090762868E+01               0
GRID*                966               0-4.040668128E+006.3184050926E+00+
*       8.2176626934E+01               0
GRID*                967               0-5.539256877E+005.0562702075E+00+
*       8.2176626956E+01               0
GRID*                968               0-5.539334504E+005.0561834144E+00+
*       7.9090765680E+01               0
GRID*                969               0-6.659444835E+003.4498844759E+00+
*       8.2176624331E+01               0
GRID*                970               0-7.324970928E+001.6106032547E+00+
*       8.2176626908E+01               0
GRID*                971               0-7.324994768E+001.6104893406E+00+
*       7.9090765635E+01               0
GRID*                972               0-7.492169054E+00-3.415231505E-01+
*       8.2176626926E+01               0
GRID*                973               0-7.148375315E+00-2.269501894E+00+
*       8.2176624331E+01               0
GRID*                974               0-7.148344255E+00-2.269599717E+00+
*       7.9090762868E+01               0
GRID*                975               0-6.318405093E+00-4.040668128E+00+
*       8.2176626934E+01               0
GRID*                976               0-5.056270208E+00-5.539256877E+00+
*       8.2176626956E+01               0
GRID*                977               0-5.056183414E+00-5.539334504E+00+
*       7.9090765680E+01               0
GRID*                978               0-3.449884476E+00-6.659444835E+00+
*       8.2176624331E+01               0
GRID*                979               0-1.610603255E+00-7.324970928E+00+
*       8.2176626908E+01               0
GRID*                980               0-1.610489341E+00-7.324994768E+00+
*       7.9090765635E+01               0
GRID*                981               03.4152315047E-01-7.492169054E+00+
*       8.2176626926E+01               0
GRID*                982               02.2695018940E+00-7.148375315E+00+
*       8.2176624331E+01               0
GRID*                983               02.2695997166E+00-7.148344255E+00+
*       7.9090762868E+01               0
GRID*                984               04.0406681275E+00-6.318405093E+00+
*       8.2176626934E+01               0
GRID*                985               05.5392568769E+00-5.056270208E+00+
*       8.2176626956E+01               0
GRID*                986               05.5393345037E+00-5.056183414E+00+
*       7.9090765680E+01               0
GRID*                987               06.6594448352E+00-3.449884476E+00+
*       8.2176624331E+01               0
GRID*                988               06.3182751006E+004.0408670410E+00+
*       7.5854247864E+01               0
GRID*                989               05.0560930482E+005.5394154086E+00+
*       7.5854247887E+01               0
GRID*                990               05.0560035420E+005.5394956518E+00+
*       7.2617730079E+01               0
GRID*                991               03.4496988386E+006.6595410230E+00+
*       7.5854244881E+01               0
GRID*                992               01.6103706834E+007.3250196628E+00+
*       7.5854247842E+01               0
GRID*                993               01.6102530862E+007.3250444165E+00+
*       7.2617730036E+01               0
GRID*                994               0-3.417605197E-017.4921558821E+00+
*       7.5854247863E+01               0
GRID*                995               0-2.269701174E+007.1483120645E+00+
*       7.5854244881E+01               0
GRID*                996               0-2.269801275E+007.1482803346E+00+
*       7.2617726886E+01               0
GRID*                997               0-4.040867041E+006.3182751006E+00+
*       7.5854247864E+01               0
GRID*                998               0-5.539415409E+005.0560930482E+00+
*       7.5854247887E+01               0
GRID*                999               0-5.539495652E+005.0560035420E+00+
*       7.2617730079E+01               0
GRID*               1000               0-6.659541023E+003.4496988386E+00+
*       7.5854244881E+01               0
GRID*               1001               0-7.325019663E+001.6103706834E+00+
*       7.5854247842E+01               0
GRID*               1002               0-7.325044416E+001.6102530862E+00+
*       7.2617730036E+01               0
GRID*               1003               0-7.492155882E+00-3.417605197E-01+
*       7.5854247863E+01               0
GRID*               1004               0-7.148312064E+00-2.269701174E+00+
*       7.5854244881E+01               0
GRID*               1005               0-7.148280335E+00-2.269801275E+00+
*       7.2617726886E+01               0
GRID*               1006               0-6.318275101E+00-4.040867041E+00+
*       7.5854247864E+01               0
GRID*               1007               0-5.056093048E+00-5.539415409E+00+
*       7.5854247887E+01               0
GRID*               1008               0-5.056003542E+00-5.539495652E+00+
*       7.2617730079E+01               0
GRID*               1009               0-3.449698839E+00-6.659541023E+00+
*       7.5854244881E+01               0
GRID*               1010               0-1.610370683E+00-7.325019663E+00+
*       7.5854247842E+01               0
GRID*               1011               0-1.610253086E+00-7.325044416E+00+
*       7.2617730036E+01               0
GRID*               1012               03.4176051974E-01-7.492155882E+00+
*       7.5854247863E+01               0
GRID*               1013               02.2697011744E+00-7.148312064E+00+
*       7.5854244881E+01               0
GRID*               1014               02.2698012746E+00-7.148280335E+00+
*       7.2617726886E+01               0
GRID*               1015               04.0408670410E+00-6.318275101E+00+
*       7.5854247864E+01               0
GRID*               1016               05.5394154086E+00-5.056093048E+00+
*       7.5854247887E+01               0
GRID*               1017               05.5394956518E+00-5.056003542E+00+
*       7.2617730079E+01               0
GRID*               1018               06.6595410230E+00-3.449698839E+00+
*       7.5854244881E+01               0
GRID*               1019               06.3181416326E+004.0410718750E+00+
*       6.9231708611E+01               0
GRID*               1020               05.0559110453E+005.5395787216E+00+
*       6.9231708634E+01               0
GRID*               1021               05.0558199842E+005.5396606875E+00+
*       6.5845687165E+01               0
GRID*               1022               03.4495096997E+006.6596391550E+00+
*       6.9231705253E+01               0
GRID*               1023               01.6101314678E+007.3250701262E+00+
*       6.9231708593E+01               0
GRID*               1024               01.6100116206E+007.3250956012E+00+
*       6.5845687127E+01               0
GRID*               1025               0-3.420046947E-017.4921426662E+00+
*       6.9231708615E+01               0
GRID*               1026               0-2.269904306E+007.1482477131E+00+
*       6.9231705253E+01               0
GRID*               1027               0-2.270005317E+007.1482157769E+00+
*       6.5845683608E+01               0
GRID*               1028               0-4.041071875E+006.3181416326E+00+
*       6.9231708611E+01               0
GRID*               1029               0-5.539578722E+005.0559110453E+00+
*       6.9231708634E+01               0
GRID*               1030               0-5.539660687E+005.0558199842E+00+
*       6.5845687165E+01               0
GRID*               1031               0-6.659639155E+003.4495096997E+00+
*       6.9231705253E+01               0
GRID*               1032               0-7.325070126E+001.6101314678E+00+
*       6.9231708593E+01               0
GRID*               1033               0-7.325095601E+001.6100116206E+00+
*       6.5845687127E+01               0
GRID*               1034               0-7.492142666E+00-3.420046947E-01+
*       6.9231708615E+01               0
GRID*               1035               0-7.148247713E+00-2.269904306E+00+
*       6.9231705253E+01               0
GRID*               1036               0-7.148215777E+00-2.270005317E+00+
*       6.5845683608E+01               0
GRID*               1037               0-6.318141633E+00-4.041071875E+00+
*       6.9231708611E+01               0
GRID*               1038               0-5.055911045E+00-5.539578722E+00+
*       6.9231708634E+01               0
GRID*               1039               0-5.055819984E+00-5.539660687E+00+
*       6.5845687165E+01               0
GRID*               1040               0-3.449509700E+00-6.659639155E+00+
*       6.9231705253E+01               0
GRID*               1041               0-1.610131468E+00-7.325070126E+00+
*       6.9231708593E+01               0
GRID*               1042               0-1.610011621E+00-7.325095601E+00+
*       6.5845687127E+01               0
GRID*               1043               03.4200469469E-01-7.492142666E+00+
*       6.9231708615E+01               0
GRID*               1044               02.2699043058E+00-7.148247713E+00+
*       6.9231705253E+01               0
GRID*               1045               02.2700053172E+00-7.148215777E+00+
*       6.5845683608E+01               0
GRID*               1046               04.0410718750E+00-6.318141633E+00+
*       6.9231708611E+01               0
GRID*               1047               05.5395787216E+00-5.055911045E+00+
*       6.9231708634E+01               0
GRID*               1048               05.5396606875E+00-5.055819984E+00+
*       6.5845687165E+01               0
GRID*               1049               06.6596391550E+00-3.449509700E+00+
*       6.9231705253E+01               0
GRID*               1050               06.3180067731E+004.0412798742E+00+
*       6.2317109319E+01               0
GRID*               1051               05.0557269554E+005.5397446701E+00+
*       6.2317109341E+01               0
GRID*               1052               05.0556362457E+005.5398268706E+00+
*       5.8788531479E+01               0
GRID*               1053               03.4493201135E+006.6597377201E+00+
*       6.2317105614E+01               0
GRID*               1054               01.6098890301E+007.3251218438E+00+
*       6.2317109305E+01               0
GRID*               1055               01.6097693020E+007.3251477078E+00+
*       5.8788531446E+01               0
GRID*               1056               0-3.422522089E-017.4921298383E+00+
*       6.2317109327E+01               0
GRID*               1057               0-2.270108060E+007.1481833521E+00+
*       6.2317105614E+01               0
GRID*               1058               0-2.270207766E+007.1481519583E+00+
*       5.8788527602E+01               0
GRID*               1059               0-4.041279874E+006.3180067731E+00+
*       6.2317109319E+01               0
GRID*               1060               0-5.539744670E+005.0557269554E+00+
*       6.2317109341E+01               0
GRID*               1061               0-5.539826871E+005.0556362457E+00+
*       5.8788531479E+01               0
GRID*               1062               0-6.659737720E+003.4493201135E+00+
*       6.2317105614E+01               0
GRID*               1063               0-7.325121844E+001.6098890301E+00+
*       6.2317109305E+01               0
GRID*               1064               0-7.325147708E+001.6097693020E+00+
*       5.8788531446E+01               0
GRID*               1065               0-7.492129838E+00-3.422522089E-01+
*       6.2317109327E+01               0
GRID*               1066               0-7.148183352E+00-2.270108060E+00+
*       6.2317105614E+01               0
GRID*               1067               0-7.148151958E+00-2.270207766E+00+
*       5.8788527602E+01               0
GRID*               1068               0-6.318006773E+00-4.041279874E+00+
*       6.2317109319E+01               0
GRID*               1069               0-5.055726955E+00-5.539744670E+00+
*       6.2317109341E+01               0
GRID*               1070               0-5.055636246E+00-5.539826871E+00+
*       5.8788531479E+01               0
GRID*               1071               0-3.449320114E+00-6.659737720E+00+
*       6.2317105614E+01               0
GRID*               1072               0-1.609889030E+00-7.325121844E+00+
*       6.2317109305E+01               0
GRID*               1073               0-1.609769302E+00-7.325147708E+00+
*       5.8788531446E+01               0
GRID*               1074               03.4225220889E-01-7.492129838E+00+
*       6.2317109327E+01               0
GRID*               1075               02.2701080597E+00-7.148183352E+00+
*       6.2317105614E+01               0
GRID*               1076               02.2702077658E+00-7.148151958E+00+
*       5.8788527602E+01               0
GRID*               1077               04.0412798742E+00-6.318006773E+00+
*       6.2317109319E+01               0
GRID*               1078               05.5397446701E+00-5.055726955E+00+
*       6.2317109341E+01               0
GRID*               1079               05.5398268706E+00-5.055636246E+00+
*       5.8788531479E+01               0
GRID*               1080               06.6597377201E+00-3.449320114E+00+
*       6.2317105614E+01               0
GRID*               1081               06.3178738701E+004.0414865780E+00+
*       5.5131055763E+01               0
GRID*               1082               05.0555452132E+005.5399097764E+00+
*       5.5131055783E+01               0
GRID*               1083               05.0554579171E+005.5399898125E+00+
*       5.1473580026E+01               0
GRID*               1084               03.4491349397E+006.6598343089E+00+
*       5.5131051777E+01               0
GRID*               1085               01.6096488919E+007.3251740288E+00+
*       5.5131055754E+01               0
GRID*               1086               01.6095330942E+007.3251997408E+00+
*       5.1473580001E+01               0
GRID*               1087               0-3.424974675E-017.4921180750E+00+
*       5.5131055774E+01               0
GRID*               1088               0-2.270307296E+007.1481207143E+00+
*       5.5131051777E+01               0
GRID*               1089               0-2.270402558E+007.1480909205E+00+
*       5.1473575924E+01               0
GRID*               1090               0-4.041486578E+006.3178738701E+00+
*       5.5131055763E+01               0
GRID*               1091               0-5.539909776E+005.0555452132E+00+
*       5.5131055783E+01               0
GRID*               1092               0-5.539989812E+005.0554579171E+00+
*       5.1473580026E+01               0
GRID*               1093               0-6.659834309E+003.4491349397E+00+
*       5.5131051777E+01               0
GRID*               1094               0-7.325174029E+001.6096488919E+00+
*       5.5131055754E+01               0
GRID*               1095               0-7.325199741E+001.6095330942E+00+
*       5.1473580001E+01               0
GRID*               1096               0-7.492118075E+00-3.424974675E-01+
*       5.5131055774E+01               0
GRID*               1097               0-7.148120714E+00-2.270307296E+00+
*       5.5131051777E+01               0
GRID*               1098               0-7.148090920E+00-2.270402558E+00+
*       5.1473575924E+01               0
GRID*               1099               0-6.317873870E+00-4.041486578E+00+
*       5.5131055763E+01               0
GRID*               1100               0-5.055545213E+00-5.539909776E+00+
*       5.5131055783E+01               0
GRID*               1101               0-5.055457917E+00-5.539989812E+00+
*       5.1473580026E+01               0
GRID*               1102               0-3.449134940E+00-6.659834309E+00+
*       5.5131051777E+01               0
GRID*               1103               0-1.609648892E+00-7.325174029E+00+
*       5.5131055754E+01               0
GRID*               1104               0-1.609533094E+00-7.325199741E+00+
*       5.1473580001E+01               0
GRID*               1105               03.4249746747E-01-7.492118075E+00+
*       5.5131055774E+01               0
GRID*               1106               02.2703072965E+00-7.148120714E+00+
*       5.5131051777E+01               0
GRID*               1107               02.2704025578E+00-7.148090920E+00+
*       5.1473575924E+01               0
GRID*               1108               04.0414865780E+00-6.317873870E+00+
*       5.5131055763E+01               0
GRID*               1109               05.5399097764E+00-5.055545213E+00+
*       5.5131055783E+01               0
GRID*               1110               05.5399898125E+00-5.055457917E+00+
*       5.1473580026E+01               0
GRID*               1111               06.6598343089E+00-3.449134940E+00+
*       5.5131051777E+01               0
GRID*               1112               06.3177482548E+004.0416848772E+00+
*       4.7707992234E+01               0
GRID*               1113               05.0553728814E+005.5400684970E+00+
*       4.7707992248E+01               0
GRID*               1114               05.0552940096E+005.5401424488E+00+
*       4.3942404368E+01               0
GRID*               1115               03.4489522450E+006.6599298466E+00+
*       4.7707988146E+01               0
GRID*               1116               01.6094198498E+007.3252254241E+00+
*       4.7707992229E+01               0
GRID*               1117               01.6093142154E+007.3252501037E+00+
*       4.3942404356E+01               0
GRID*               1118               0-3.427315565E-017.4921084505E+00+
*       4.7707992242E+01               0
GRID*               1119               0-2.270504037E+007.1480590866E+00+
*       4.7707988146E+01               0
GRID*               1120               0-2.270611484E+007.1480252203E+00+
*       4.3942400403E+01               0
GRID*               1121               0-4.041684877E+006.3177482548E+00+
*       4.7707992234E+01               0
GRID*               1122               0-5.540068497E+005.0553728814E+00+
*       4.7707992248E+01               0
GRID*               1123               0-5.540142449E+005.0552940096E+00+
*       4.3942404368E+01               0
GRID*               1124               0-6.659929847E+003.4489522450E+00+
*       4.7707988146E+01               0
GRID*               1125               0-7.325225424E+001.6094198498E+00+
*       4.7707992229E+01               0
GRID*               1126               0-7.325250104E+001.6093142154E+00+
*       4.3942404356E+01               0
GRID*               1127               0-7.492108451E+00-3.427315565E-01+
*       4.7707992242E+01               0
GRID*               1128               0-7.148059087E+00-2.270504037E+00+
*       4.7707988146E+01               0
GRID*               1129               0-7.148025220E+00-2.270611484E+00+
*       4.3942400403E+01               0
GRID*               1130               0-6.317748255E+00-4.041684877E+00+
*       4.7707992234E+01               0
GRID*               1131               0-5.055372881E+00-5.540068497E+00+
*       4.7707992248E+01               0
GRID*               1132               0-5.055294010E+00-5.540142449E+00+
*       4.3942404368E+01               0
GRID*               1133               0-3.448952245E+00-6.659929847E+00+
*       4.7707988146E+01               0
GRID*               1134               0-1.609419850E+00-7.325225424E+00+
*       4.7707992229E+01               0
GRID*               1135               0-1.609314215E+00-7.325250104E+00+
*       4.3942404356E+01               0
GRID*               1136               03.4273155651E-01-7.492108451E+00+
*       4.7707992242E+01               0
GRID*               1137               02.2705040370E+00-7.148059087E+00+
*       4.7707988146E+01               0
GRID*               1138               02.2706114843E+00-7.148025220E+00+
*       4.3942400403E+01               0
GRID*               1139               04.0416848772E+00-6.317748255E+00+
*       4.7707992234E+01               0
GRID*               1140               05.5400684970E+00-5.055372881E+00+
*       4.7707992248E+01               0
GRID*               1141               05.5401424488E+00-5.055294010E+00+
*       4.3942404368E+01               0
GRID*               1142               06.6599298466E+00-3.448952245E+00+
*       4.7707988146E+01               0
GRID*               1143               06.3176387083E+004.0418631023E+00+
*       4.0096283602E+01               0
GRID*               1144               05.0552215853E+005.5402117373E+00+
*       4.0096283604E+01               0
GRID*               1145               05.0551598987E+005.5402727831E+00+
*       3.6250162663E+01               0
GRID*               1146               03.4487453279E+006.6600374437E+00+
*       4.0096279943E+01               0
GRID*               1147               01.6092163645E+007.3252739872E+00+
*       4.0096283599E+01               0
GRID*               1148               01.6091317707E+007.3252961236E+00+
*       3.6250162668E+01               0
GRID*               1149               0-3.429398248E-017.4921027543E+00+
*       4.0096283602E+01               0
GRID*               1150               0-2.270726432E+007.1479888575E+00+
*       4.0096279943E+01               0
GRID*               1151               0-2.270845729E+007.1479510132E+00+
*       3.6250159509E+01               0
GRID*               1152               0-4.041863102E+006.3176387083E+00+
*       4.0096283602E+01               0
GRID*               1153               0-5.540211737E+005.0552215853E+00+
*       4.0096283604E+01               0
GRID*               1154               0-5.540272783E+005.0551598987E+00+
*       3.6250162663E+01               0
GRID*               1155               0-6.660037444E+003.4487453279E+00+
*       4.0096279943E+01               0
GRID*               1156               0-7.325273987E+001.6092163645E+00+
*       4.0096283599E+01               0
GRID*               1157               0-7.325296124E+001.6091317707E+00+
*       3.6250162668E+01               0
GRID*               1158               0-7.492102754E+00-3.429398248E-01+
*       4.0096283602E+01               0
GRID*               1159               0-7.147988858E+00-2.270726432E+00+
*       4.0096279943E+01               0
GRID*               1160               0-7.147951013E+00-2.270845729E+00+
*       3.6250159509E+01               0
GRID*               1161               0-6.317638708E+00-4.041863102E+00+
*       4.0096283602E+01               0
GRID*               1162               0-5.055221585E+00-5.540211737E+00+
*       4.0096283604E+01               0
GRID*               1163               0-5.055159899E+00-5.540272783E+00+
*       3.6250162663E+01               0
GRID*               1164               0-3.448745328E+00-6.660037444E+00+
*       4.0096279943E+01               0
GRID*               1165               0-1.609216365E+00-7.325273987E+00+
*       4.0096283599E+01               0
GRID*               1166               0-1.609131771E+00-7.325296124E+00+
*       3.6250162668E+01               0
GRID*               1167               03.4293982478E-01-7.492102754E+00+
*       4.0096283602E+01               0
GRID*               1168               02.2707264324E+00-7.147988858E+00+
*       4.0096279943E+01               0
GRID*               1169               02.2708457290E+00-7.147951013E+00+
*       3.6250159509E+01               0
GRID*               1170               04.0418631023E+00-6.317638708E+00+
*       4.0096283602E+01               0
GRID*               1171               05.5402117373E+00-5.055221585E+00+
*       4.0096283604E+01               0
GRID*               1172               05.5402727831E+00-5.055159899E+00+
*       3.6250162663E+01               0
GRID*               1173               06.6600374437E+00-3.448745328E+00+
*       4.0096279943E+01               0
GRID*               1174               06.3175609864E+004.0420004378E+00+
*       3.2356650904E+01               0
GRID*               1175               05.0551121621E+005.5403232899E+00+
*       3.2356650886E+01               0
GRID*               1176               05.0550850532E+005.5403579646E+00+
*       2.8463138769E+01               0
GRID*               1177               03.4485183613E+006.6601549992E+00+
*       3.2356648512E+01               0
GRID*               1178               01.6090642959E+007.3253161402E+00+
*       3.2356650903E+01               0
GRID*               1179               01.6090222882E+007.3253328027E+00+
*       2.8463138802E+01               0
GRID*               1180               0-3.430960782E-017.4921042602E+00+
*       3.2356650885E+01               0
GRID*               1181               0-2.270970046E+007.1479114924E+00+
*       3.2356648512E+01               0
GRID*               1182               0-2.271097098E+007.1478710389E+00+
*       2.8463137534E+01               0
GRID*               1183               0-4.042000438E+006.3175609864E+00+
*       3.2356650904E+01               0
GRID*               1184               0-5.540323290E+005.0551121621E+00+
*       3.2356650886E+01               0
GRID*               1185               0-5.540357965E+005.0550850532E+00+
*       2.8463138769E+01               0
GRID*               1186               0-6.660154999E+003.4485183613E+00+
*       3.2356648512E+01               0
GRID*               1187               0-7.325316140E+001.6090642959E+00+
*       3.2356650903E+01               0
GRID*               1188               0-7.325332803E+001.6090222882E+00+
*       2.8463138802E+01               0
GRID*               1189               0-7.492104260E+00-3.430960782E-01+
*       3.2356650885E+01               0
GRID*               1190               0-7.147911492E+00-2.270970046E+00+
*       3.2356648512E+01               0
GRID*               1191               0-7.147871039E+00-2.271097098E+00+
*       2.8463137534E+01               0
GRID*               1192               0-6.317560986E+00-4.042000438E+00+
*       3.2356650904E+01               0
GRID*               1193               0-5.055112162E+00-5.540323290E+00+
*       3.2356650886E+01               0
GRID*               1194               0-5.055085053E+00-5.540357965E+00+
*       2.8463138769E+01               0
GRID*               1195               0-3.448518361E+00-6.660154999E+00+
*       3.2356648512E+01               0
GRID*               1196               0-1.609064296E+00-7.325316140E+00+
*       3.2356650903E+01               0
GRID*               1197               0-1.609022288E+00-7.325332803E+00+
*       2.8463138802E+01               0
GRID*               1198               03.4309607824E-01-7.492104260E+00+
*       3.2356650885E+01               0
GRID*               1199               02.2709700462E+00-7.147911492E+00+
*       3.2356648512E+01               0
GRID*               1200               02.2710970980E+00-7.147871039E+00+
*       2.8463137534E+01               0
GRID*               1201               04.0420004378E+00-6.317560986E+00+
*       3.2356650904E+01               0
GRID*               1202               05.5403232899E+00-5.055112162E+00+
*       3.2356650886E+01               0
GRID*               1203               05.5403579646E+00-5.055085053E+00+
*       2.8463138769E+01               0
GRID*               1204               06.6601549992E+00-3.448518361E+00+
*       3.2356648512E+01               0
GRID*               1205               06.3175293140E+004.0420809310E+00+
*       2.4651385784E+01               0
GRID*               1206               05.0550618805E+005.5403918801E+00+
*       2.4651385747E+01               0
GRID*               1207               05.0550019347E+005.5404540111E+00+
*       2.0839633325E+01               0
GRID*               1208               03.4482610007E+006.6602880213E+00+
*       2.4651385990E+01               0
GRID*               1209               01.6089849828E+007.3253506615E+00+
*       2.4651385785E+01               0
GRID*               1210               01.6089032303E+007.3253743671E+00+
*       2.0839633350E+01               0
GRID*               1211               0-3.431801336E-017.4921172066E+00+
*       2.4651385747E+01               0
GRID*               1212               0-2.271246088E+007.1478235713E+00+
*       2.4651385989E+01               0
GRID*               1213               0-2.271396219E+007.1477757126E+00+
*       2.0839634458E+01               0
GRID*               1214               0-4.042080931E+006.3175293140E+00+
*       2.4651385784E+01               0
GRID*               1215               0-5.540391880E+005.0550618805E+00+
*       2.4651385747E+01               0
GRID*               1216               0-5.540454011E+005.0550019347E+00+
*       2.0839633325E+01               0
GRID*               1217               0-6.660288021E+003.4482610007E+00+
*       2.4651385990E+01               0
GRID*               1218               0-7.325350661E+001.6089849828E+00+
*       2.4651385785E+01               0
GRID*               1219               0-7.325374367E+001.6089032303E+00+
*       2.0839633350E+01               0
GRID*               1220               0-7.492117207E+00-3.431801336E-01+
*       2.4651385747E+01               0
GRID*               1221               0-7.147823571E+00-2.271246088E+00+
*       2.4651385989E+01               0
GRID*               1222               0-7.147775713E+00-2.271396219E+00+
*       2.0839634458E+01               0
GRID*               1223               0-6.317529314E+00-4.042080931E+00+
*       2.4651385784E+01               0
GRID*               1224               0-5.055061881E+00-5.540391880E+00+
*       2.4651385747E+01               0
GRID*               1225               0-5.055001935E+00-5.540454011E+00+
*       2.0839633325E+01               0
GRID*               1226               0-3.448261001E+00-6.660288021E+00+
*       2.4651385990E+01               0
GRID*               1227               0-1.608984983E+00-7.325350661E+00+
*       2.4651385785E+01               0
GRID*               1228               0-1.608903230E+00-7.325374367E+00+
*       2.0839633350E+01               0
GRID*               1229               03.4318013362E-01-7.492117207E+00+
*       2.4651385747E+01               0
GRID*               1230               02.2712460883E+00-7.147823571E+00+
*       2.4651385989E+01               0
GRID*               1231               02.2713962192E+00-7.147775713E+00+
*       2.0839634458E+01               0
GRID*               1232               04.0420809310E+00-6.317529314E+00+
*       2.4651385784E+01               0
GRID*               1233               05.5403918801E+00-5.055061881E+00+
*       2.4651385747E+01               0
GRID*               1234               05.5404540111E+00-5.055001935E+00+
*       2.0839633325E+01               0
GRID*               1235               06.6602880213E+00-3.448261001E+00+
*       2.4651385990E+01               0
GRID*               1236               06.3174209780E+004.0422631327E+00+
*       1.7456004099E+01               0
GRID*               1237               05.0549084708E+005.5405409912E+00+
*       1.7456004086E+01               0
GRID*               1238               05.0547927261E+005.5406450659E+00+
*       1.4072375213E+01               0
GRID*               1239               03.4479885286E+006.6604287648E+00+
*       1.7456005465E+01               0
GRID*               1240               01.6087795414E+007.3254028923E+00+
*       1.7456004105E+01               0
GRID*               1241               01.6086277449E+007.3254351142E+00+
*       1.4072375231E+01               0
GRID*               1242               0-3.433940484E-017.4921141671E+00+
*       1.7456004098E+01               0
GRID*               1243               0-2.271538276E+007.1477304246E+00+
*       1.7456005465E+01               0
GRID*               1244               0-2.271680225E+007.1476851702E+00+
*       1.4072376478E+01               0
GRID*               1245               0-4.042263133E+006.3174209780E+00+
*       1.7456004099E+01               0
GRID*               1246               0-5.540540991E+005.0549084708E+00+
*       1.7456004086E+01               0
GRID*               1247               0-5.540645066E+005.0547927261E+00+
*       1.4072375213E+01               0
GRID*               1248               0-6.660428765E+003.4479885286E+00+
*       1.7456005465E+01               0
GRID*               1249               0-7.325402892E+001.6087795414E+00+
*       1.7456004105E+01               0
GRID*               1250               0-7.325435114E+001.6086277449E+00+
*       1.4072375231E+01               0
GRID*               1251               0-7.492114167E+00-3.433940484E-01+
*       1.7456004098E+01               0
GRID*               1252               0-7.147730425E+00-2.271538276E+00+
*       1.7456005465E+01               0
GRID*               1253               0-7.147685170E+00-2.271680225E+00+
*       1.4072376478E+01               0
GRID*               1254               0-6.317420978E+00-4.042263133E+00+
*       1.7456004099E+01               0
GRID*               1255               0-5.054908471E+00-5.540540991E+00+
*       1.7456004086E+01               0
GRID*               1256               0-5.054792726E+00-5.540645066E+00+
*       1.4072375213E+01               0
GRID*               1257               0-3.447988529E+00-6.660428765E+00+
*       1.7456005465E+01               0
GRID*               1258               0-1.608779541E+00-7.325402892E+00+
*       1.7456004105E+01               0
GRID*               1259               0-1.608627745E+00-7.325435114E+00+
*       1.4072375231E+01               0
GRID*               1260               03.4339404837E-01-7.492114167E+00+
*       1.7456004098E+01               0
GRID*               1261               02.2715382756E+00-7.147730425E+00+
*       1.7456005465E+01               0
GRID*               1262               02.2716802250E+00-7.147685170E+00+
*       1.4072376478E+01               0
GRID*               1263               04.0422631327E+00-6.317420978E+00+
*       1.7456004099E+01               0
GRID*               1264               05.5405409912E+00-5.054908471E+00+
*       1.7456004086E+01               0
GRID*               1265               05.5406450659E+00-5.054792726E+00+
*       1.4072375213E+01               0
GRID*               1266               06.6604287648E+00-3.447988529E+00+
*       1.7456005465E+01               0
GRID*               1267               06.3172598369E+004.0425092376E+00+
*       1.1326220272E+01               0
GRID*               1268               05.0546885301E+005.5407374020E+00+
*       1.1326220267E+01               0
GRID*               1269               05.0545801698E+005.5408329314E+00+
*       8.5800653923E+00               0
GRID*               1270               03.4477490892E+006.6605524479E+00+
*       1.1326221272E+01               0
GRID*               1271               01.6084915749E+007.3254629708E+00+
*       1.1326220284E+01               0
GRID*               1272               01.6083500972E+007.3254915242E+00+
*       8.5800654085E+00               0
GRID*               1273               0-3.436884532E-017.4920975289E+00+
*       1.1326220291E+01               0
GRID*               1274               0-2.271795042E+007.1476485720E+00+
*       1.1326221271E+01               0
GRID*               1275               0-2.271909257E+007.1476121766E+00+
*       8.5800660672E+00               0
GRID*               1276               0-4.042509238E+006.3172598369E+00+
*       1.1326220272E+01               0
GRID*               1277               0-5.540737402E+005.0546885301E+00+
*       1.1326220267E+01               0
GRID*               1278               0-5.540832931E+005.0545801698E+00+
*       8.5800653923E+00               0
GRID*               1279               0-6.660552448E+003.4477490892E+00+
*       1.1326221272E+01               0
GRID*               1280               0-7.325462971E+001.6084915749E+00+
*       1.1326220284E+01               0
GRID*               1281               0-7.325491524E+001.6083500972E+00+
*       8.5800654085E+00               0
GRID*               1282               0-7.492097529E+00-3.436884532E-01+
*       1.1326220291E+01               0
GRID*               1283               0-7.147648572E+00-2.271795042E+00+
*       1.1326221271E+01               0
GRID*               1284               0-7.147612177E+00-2.271909257E+00+
*       8.5800660672E+00               0
GRID*               1285               0-6.317259837E+00-4.042509238E+00+
*       1.1326220272E+01               0
GRID*               1286               0-5.054688530E+00-5.540737402E+00+
*       1.1326220267E+01               0
GRID*               1287               0-5.054580170E+00-5.540832931E+00+
*       8.5800653923E+00               0
GRID*               1288               0-3.447749089E+00-6.660552448E+00+
*       1.1326221272E+01               0
GRID*               1289               0-1.608491575E+00-7.325462971E+00+
*       1.1326220284E+01               0
GRID*               1290               0-1.608350097E+00-7.325491524E+00+
*       8.5800654085E+00               0
GRID*               1291               03.4368845321E-01-7.492097529E+00+
*       1.1326220291E+01               0
GRID*               1292               02.2717950419E+00-7.147648572E+00+
*       1.1326221271E+01               0
GRID*               1293               02.2719092572E+00-7.147612177E+00+
*       8.5800660672E+00               0
GRID*               1294               04.0425092376E+00-6.317259837E+00+
*       1.1326220272E+01               0
GRID*               1295               05.5407374020E+00-5.054688530E+00+
*       1.1326220267E+01               0
GRID*               1296               05.5408329314E+00-5.054580170E+00+
*       8.5800653923E+00               0
GRID*               1297               06.6605524479E+00-3.447749089E+00+
*       1.1326221272E+01               0
GRID*               1298               06.3171142699E+004.0427284284E+00+
*       6.3179551804E+00               0
GRID*               1299               05.0544910307E+005.5409115278E+00+
*       6.3179551776E+00               0
GRID*               1300               05.0544047186E+005.5409879533E+00+
*       4.0558449208E+00               0
GRID*               1301               03.4475554463E+006.6606525154E+00+
*       6.3179555806E+00               0
GRID*               1302               01.6082336522E+007.3255150308E+00+
*       6.3179551923E+00               0
GRID*               1303               01.6081207079E+007.3255380754E+00+
*       4.0558449324E+00               0
GRID*               1304               0-3.439512317E-017.4920810012E+00+
*       6.3179552014E+00               0
GRID*               1305               0-2.272002726E+007.1475824039E+00+
*       6.3179555806E+00               0
GRID*               1306               0-2.272095506E+007.1475528646E+00+
*       4.0558450952E+00               0
GRID*               1307               0-4.042728428E+006.3171142699E+00+
*       6.3179551804E+00               0
GRID*               1308               0-5.540911528E+005.0544910307E+00+
*       6.3179551776E+00               0
GRID*               1309               0-5.540987953E+005.0544047186E+00+
*       4.0558449208E+00               0
GRID*               1310               0-6.660652515E+003.4475554463E+00+
*       6.3179555806E+00               0
GRID*               1311               0-7.325515031E+001.6082336522E+00+
*       6.3179551923E+00               0
GRID*               1312               0-7.325538075E+001.6081207079E+00+
*       4.0558449324E+00               0
GRID*               1313               0-7.492081001E+00-3.439512317E-01+
*       6.3179552014E+00               0
GRID*               1314               0-7.147582404E+00-2.272002726E+00+
*       6.3179555806E+00               0
GRID*               1315               0-7.147552865E+00-2.272095506E+00+
*       4.0558450952E+00               0
GRID*               1316               0-6.317114270E+00-4.042728428E+00+
*       6.3179551804E+00               0
GRID*               1317               0-5.054491031E+00-5.540911528E+00+
*       6.3179551776E+00               0
GRID*               1318               0-5.054404719E+00-5.540987953E+00+
*       4.0558449208E+00               0
GRID*               1319               0-3.447555446E+00-6.660652515E+00+
*       6.3179555806E+00               0
GRID*               1320               0-1.608233652E+00-7.325515031E+00+
*       6.3179551923E+00               0
GRID*               1321               0-1.608120708E+00-7.325538075E+00+
*       4.0558449324E+00               0
GRID*               1322               03.4395123174E-01-7.492081001E+00+
*       6.3179552014E+00               0
GRID*               1323               02.2720027264E+00-7.147582404E+00+
*       6.3179555806E+00               0
GRID*               1324               02.2720955058E+00-7.147552865E+00+
*       4.0558450952E+00               0
GRID*               1325               04.0427284284E+00-6.317114270E+00+
*       6.3179551804E+00               0
GRID*               1326               05.5409115278E+00-5.054491031E+00+
*       6.3179551776E+00               0
GRID*               1327               05.5409879533E+00-5.054404719E+00+
*       4.0558449208E+00               0
GRID*               1328               06.6606525154E+00-3.447555446E+00+
*       6.3179555806E+00               0
GRID*               1329               07.1490597494E+002.2673497996E+00+
*       1.4802572001E+02               0
GRID*               1330               07.1490397779E+002.2674127382E+00+
*       1.4605144002E+02               0
GRID*               1331               06.3197301674E+004.0386333809E+00+
*       1.4802572000E+02               0
GRID*               1332               07.1490196216E+002.2674762387E+00+
*       1.4406741191E+02               0
GRID*               1333               07.1489993834E+002.2675399785E+00+
*       1.4208338379E+02               0
GRID*               1334               07.1489788665E+002.2676045776E+00+
*       1.4007976675E+02               0
GRID*               1335               07.1489582748E+002.2676693945E+00+
*       1.3807614971E+02               0
GRID*               1336               07.1489373072E+002.2677353780E+00+
*       1.3604292146E+02               0
GRID*               1337               07.1489162723E+002.2678015576E+00+
*       1.3400969321E+02               0
GRID*               1338               07.1488947605E+002.2678692224E+00+
*       1.3193656951E+02               0
GRID*               1339               07.1488731892E+002.2679370601E+00+
*       1.2986344581E+02               0
GRID*               1340               07.1488510364E+002.2680067129E+00+
*       1.2773981442E+02               0
GRID*               1341               07.1488288329E+002.2680765126E+00+
*       1.2561618303E+02               0
GRID*               1342               07.1488059402E+002.2681484677E+00+
*       1.2343106030E+02               0
GRID*               1343               07.1487830071E+002.2682205391E+00+
*       1.2124593757E+02               0
GRID*               1344               07.1487592745E+002.2682951136E+00+
*       1.1898795927E+02               0
GRID*               1345               07.1487355144E+002.2683697667E+00+
*       1.1672998098E+02               0
GRID*               1346               07.1487108442E+002.2684472729E+00+
*       1.1438744307E+02               0
GRID*               1347               07.1486861626E+002.2685248099E+00+
*       1.1204490517E+02               0
GRID*               1348               07.1486604629E+002.2686055423E+00+
*       1.0960587524E+02               0
GRID*               1349               07.1486347731E+002.2686862430E+00+
*       1.0716684532E+02               0
GRID*               1350               07.1486079646E+002.2687704598E+00+
*       1.0461937094E+02               0
GRID*               1351               07.1485811943E+002.2688545613E+00+
*       1.0207189656E+02               0
GRID*               1352               07.1485532194E+002.2689424556E+00+
*       9.9404341331E+01               0
GRID*               1353               07.1485253210E+002.2690301214E+00+
*       9.6736786104E+01               0
GRID*               1354               07.1484961572E+002.2691217813E+00+
*       9.3938326252E+01               0
GRID*               1355               07.1484671229E+002.2692130569E+00+
*       9.1139866396E+01               0
GRID*               1356               07.1484368014E+002.2693084097E+00+
*       8.8201176094E+01               0
GRID*               1357               07.1484066834E+002.2694031602E+00+
*       8.5262485788E+01               0
GRID*               1358               07.1483753147E+002.2695018940E+00+
*       8.2176624331E+01               0
GRID*               1359               07.1483442546E+002.2695997166E+00+
*       7.9090762868E+01               0
GRID*               1360               07.1483120645E+002.2697011744E+00+
*       7.5854244881E+01               0
GRID*               1361               07.1482803346E+002.2698012746E+00+
*       7.2617726886E+01               0
GRID*               1362               07.1482477131E+002.2699043058E+00+
*       6.9231705253E+01               0
GRID*               1363               07.1482157769E+002.2700053172E+00+
*       6.5845683608E+01               0
GRID*               1364               07.1481833521E+002.2701080597E+00+
*       6.2317105614E+01               0
GRID*               1365               07.1481519583E+002.2702077658E+00+
*       5.8788527602E+01               0
GRID*               1366               07.1481207143E+002.2703072965E+00+
*       5.5131051777E+01               0
GRID*               1367               07.1480909205E+002.2704025578E+00+
*       5.1473575924E+01               0
GRID*               1368               07.1480590866E+002.2705040370E+00+
*       4.7707988146E+01               0
GRID*               1369               07.1480252203E+002.2706114843E+00+
*       4.3942400403E+01               0
GRID*               1370               07.1479888575E+002.2707264324E+00+
*       4.0096279943E+01               0
GRID*               1371               07.1479510132E+002.2708457290E+00+
*       3.6250159509E+01               0
GRID*               1372               07.1479114924E+002.2709700462E+00+
*       3.2356648512E+01               0
GRID*               1373               07.1478710389E+002.2710970980E+00+
*       2.8463137534E+01               0
GRID*               1374               07.1478235713E+002.2712460883E+00+
*       2.4651385989E+01               0
GRID*               1375               07.1477757126E+002.2713962192E+00+
*       2.0839634458E+01               0
GRID*               1376               07.1477304246E+002.2715382756E+00+
*       1.7456005465E+01               0
GRID*               1377               07.1476851702E+002.2716802250E+00+
*       1.4072376478E+01               0
GRID*               1378               07.1476485720E+002.2717950419E+00+
*       1.1326221271E+01               0
GRID*               1379               07.1476121766E+002.2719092572E+00+
*       8.5800660672E+00               0
GRID*               1380               07.1475824039E+002.2720027264E+00+
*       6.3179555806E+00               0
GRID*               1381               07.1475528646E+002.2720955058E+00+
*       4.0558450952E+00               0
GRID*               1382               07.1475266164E+002.2721779919E+00+
*       2.0279225472E+00               0
GRID*               1383               06.3169971284E+004.0429063389E+00+
*       2.0279225092E+00               0
GRID*               1384               05.0543318042E+005.5410530412E+00+
*       2.0279225080E+00               0
GRID*               1385               03.4473920672E+006.6607369991E+00+
*       2.0279225473E+00               0
GRID*               1386               01.6080250190E+007.3255580011E+00+
*       2.0279225149E+00               0
GRID*               1387               0-3.441638869E-017.4920684762E+00+
*       2.0279225193E+00               0
GRID*               1388               0-2.272177992E+007.1475266164E+00+
*       2.0279225472E+00               0
GRID*               1389               0-4.042906339E+006.3169971284E+00+
*       2.0279225092E+00               0
GRID*               1390               0-5.541053041E+005.0543318042E+00+
*       2.0279225080E+00               0
GRID*               1391               0-6.660736999E+003.4473920672E+00+
*       2.0279225473E+00               0
GRID*               1392               0-7.325558001E+001.6080250190E+00+
*       2.0279225149E+00               0
GRID*               1393               0-7.492068476E+00-3.441638869E-01+
*       2.0279225193E+00               0
GRID*               1394               0-7.147526616E+00-2.272177992E+00+
*       2.0279225472E+00               0
GRID*               1395               0-6.316997128E+00-4.042906339E+00+
*       2.0279225092E+00               0
GRID*               1396               0-5.054331804E+00-5.541053041E+00+
*       2.0279225080E+00               0
GRID*               1397               0-3.447392067E+00-6.660736999E+00+
*       2.0279225473E+00               0
GRID*               1398               0-1.608025019E+00-7.325558001E+00+
*       2.0279225149E+00               0
GRID*               1399               03.4416388687E-01-7.492068476E+00+
*       2.0279225193E+00               0
GRID*               1400               02.2721779919E+00-7.147526616E+00+
*       2.0279225472E+00               0
GRID*               1401               04.0429063389E+00-6.316997128E+00+
*       2.0279225092E+00               0
GRID*               1402               05.5410530412E+00-5.054331804E+00+
*       2.0279225080E+00               0
GRID*               1403               06.6607369991E+00-3.447392067E+00+
*       2.0279225473E+00               0
GRID*               1404               07.3255580011E+00-1.608025019E+00+
*       2.0279225149E+00               0
GRID*               1405               07.3255380754E+00-1.608120708E+00+
*       4.0558449324E+00               0
GRID*               1406               07.3255150308E+00-1.608233652E+00+
*       6.3179551923E+00               0
GRID*               1407               07.3254915242E+00-1.608350097E+00+
*       8.5800654085E+00               0
GRID*               1408               07.3254629708E+00-1.608491575E+00+
*       1.1326220284E+01               0
GRID*               1409               07.3254351142E+00-1.608627745E+00+
*       1.4072375231E+01               0
GRID*               1410               07.3254028923E+00-1.608779541E+00+
*       1.7456004105E+01               0
GRID*               1411               07.3253743671E+00-1.608903230E+00+
*       2.0839633350E+01               0
GRID*               1412               07.3253506615E+00-1.608984983E+00+
*       2.4651385785E+01               0
GRID*               1413               07.3253328027E+00-1.609022288E+00+
*       2.8463138802E+01               0
GRID*               1414               07.3253161402E+00-1.609064296E+00+
*       3.2356650903E+01               0
GRID*               1415               07.3252961236E+00-1.609131771E+00+
*       3.6250162668E+01               0
GRID*               1416               07.3252739872E+00-1.609216365E+00+
*       4.0096283599E+01               0
GRID*               1417               07.3252501037E+00-1.609314215E+00+
*       4.3942404356E+01               0
GRID*               1418               07.3252254241E+00-1.609419850E+00+
*       4.7707992229E+01               0
GRID*               1419               07.3251997408E+00-1.609533094E+00+
*       5.1473580001E+01               0
GRID*               1420               07.3251740288E+00-1.609648892E+00+
*       5.5131055754E+01               0
GRID*               1421               07.3251477078E+00-1.609769302E+00+
*       5.8788531446E+01               0
GRID*               1422               07.3251218438E+00-1.609889030E+00+
*       6.2317109305E+01               0
GRID*               1423               07.3250956012E+00-1.610011621E+00+
*       6.5845687127E+01               0
GRID*               1424               07.3250701262E+00-1.610131468E+00+
*       6.9231708593E+01               0
GRID*               1425               07.3250444165E+00-1.610253086E+00+
*       7.2617730036E+01               0
GRID*               1426               07.3250196628E+00-1.610370683E+00+
*       7.5854247842E+01               0
GRID*               1427               07.3249947680E+00-1.610489341E+00+
*       7.9090765635E+01               0
GRID*               1428               07.3249709279E+00-1.610603255E+00+
*       8.2176626908E+01               0
GRID*               1429               07.3249470097E+00-1.610717752E+00+
*       8.5262488174E+01               0
GRID*               1430               07.3249241788E+00-1.610827184E+00+
*       8.8201178298E+01               0
GRID*               1431               07.3249013129E+00-1.610936872E+00+
*       9.1139868419E+01               0
GRID*               1432               07.3248795196E+00-1.611041458E+00+
*       9.3938328103E+01               0
GRID*               1433               07.3248577211E+00-1.611146074E+00+
*       9.6736787787E+01               0
GRID*               1434               07.3248369481E+00-1.611245744E+00+
*       9.9404342856E+01               0
GRID*               1435               07.3248161907E+00-1.611345288E+00+
*       1.0207189793E+02               0
GRID*               1436               07.3247963908E+00-1.611440168E+00+
*       1.0461937217E+02               0
GRID*               1437               07.3247766211E+00-1.611534811E+00+
*       1.0716684641E+02               0
GRID*               1438               07.3247577282E+00-1.611625150E+00+
*       1.0960587621E+02               0
GRID*               1439               07.3247388761E+00-1.611715173E+00+
*       1.1204490601E+02               0
GRID*               1440               07.3247208138E+00-1.611801294E+00+
*       1.1438744380E+02               0
GRID*               1441               07.3247027999E+00-1.611887041E+00+
*       1.1672998160E+02               0
GRID*               1442               07.3246854869E+00-1.611969302E+00+
*       1.1898795980E+02               0
GRID*               1443               07.3246682279E+00-1.612051147E+00+
*       1.2124593800E+02               0
GRID*               1444               07.3246515815E+00-1.612129923E+00+
*       1.2343106065E+02               0
GRID*               1445               07.3246349936E+00-1.612208248E+00+
*       1.2561618331E+02               0
GRID*               1446               07.3246189322E+00-1.612283910E+00+
*       1.2773981463E+02               0
GRID*               1447               07.3246029331E+00-1.612359094E+00+
*       1.2986344597E+02               0
GRID*               1448               07.3245873779E+00-1.612432004E+00+
*       1.3193656961E+02               0
GRID*               1449               07.3245718882E+00-1.612504411E+00+
*       1.3400969327E+02               0
GRID*               1450               07.3245567633E+00-1.612574913E+00+
*       1.3604292148E+02               0
GRID*               1451               07.3245417072E+00-1.612644887E+00+
*       1.3807614971E+02               0
GRID*               1452               07.3245269404E+00-1.612713306E+00+
*       1.4007976673E+02               0
GRID*               1453               07.3245122458E+00-1.612781172E+00+
*       1.4208338375E+02               0
GRID*               1454               07.3244977685E+00-1.612847810E+00+
*       1.4406741187E+02               0
GRID*               1455               07.3244833670E+00-1.612913868E+00+
*       1.4605143999E+02               0
GRID*               1456               06.6584070404E+00-3.451890203E+00+
*       1.4802572001E+02               0
GRID*               1457               07.3244691139E+00-1.612979007E+00+
*       1.4802571999E+02               0
GRID*               1458               04.0386333809E+00-6.319730167E+00+
*       1.4802572000E+02               0
GRID*               1459               05.5376337445E+00-5.058078283E+00+
*       1.4802572000E+02               0
GRID*               1460               03.3909691877E-01-7.492299828E+00+
*       1.4802571999E+02               0
GRID*               1461               02.2673497996E+00-7.149059749E+00+
*       1.4802572001E+02               0
GRID*               1462               0-3.451890203E+00-6.658407040E+00+
*       1.4802572001E+02               0
GRID*               1463               0-1.612979007E+00-7.324469114E+00+
*       1.4802571999E+02               0
GRID*               1464               0-6.319730167E+00-4.038633381E+00+
*       1.4802572000E+02               0
GRID*               1465               0-5.058078283E+00-5.537633744E+00+
*       1.4802572000E+02               0
GRID*               1466               0-7.492299828E+00-3.390969188E-01+
*       1.4802571999E+02               0
GRID*               1467               0-7.149059749E+00-2.267349800E+00+
*       1.4802572001E+02               0
GRID*               1468               0-6.658407040E+003.4518902034E+00+
*       1.4802572001E+02               0
GRID*               1469               0-7.324469114E+001.6129790070E+00+
*       1.4802571999E+02               0
GRID*               1470               0-4.038633381E+006.3197301674E+00+
*       1.4802572000E+02               0
GRID*               1471               0-5.537633744E+005.0580782825E+00+
*       1.4802572000E+02               0
GRID*               1472               0-3.390969188E-017.4922998284E+00+
*       1.4802571999E+02               0
GRID*               1473               0-2.267349800E+007.1490597494E+00+
*       1.4802572001E+02               0
GRID*               1474               03.4518902034E+006.6584070404E+00+
*       1.4802572001E+02               0
GRID*               1475               01.6129790070E+007.3244691139E+00+
*       1.4802571999E+02               0
GRID*               1476               05.0580782825E+005.5376337445E+00+
*       1.4802572000E+02               0
GRID*               1477               06.2111837982E+004.2036070199E+00+
*       2.4601852872E+02               0
GRID*               1478               03.2757697953E+006.7467953019E+00+
*       2.4601852863E+02               0
GRID*               1479               0-5.362393689E-017.4807458645E+00+
*       2.4601852869E+02               0
GRID*               1480               0-4.203607020E+006.2111837982E+00+
*       2.4601852872E+02               0
GRID*               1481               0-6.746795302E+003.2757697953E+00+
*       2.4601852863E+02               0
GRID*               1482               0-7.480745864E+00-5.362393689E-01+
*       2.4601852869E+02               0
GRID*               1483               0-6.211183798E+00-4.203607020E+00+
*       2.4601852872E+02               0
GRID*               1484               0-3.275769795E+00-6.746795302E+00+
*       2.4601852863E+02               0
GRID*               1485               05.3623936892E-01-7.480745864E+00+
*       2.4601852869E+02               0
GRID*               1486               04.2036070199E+00-6.211183798E+00+
*       2.4601852872E+02               0
GRID*               1487               06.7467953019E+00-3.275769795E+00+
*       2.4601852863E+02               0
GRID*               1488               06.2110374601E+004.2038209294E+00+
*       2.4197241565E+02               0
GRID*               1489               03.2755489844E+006.7469025583E+00+
*       2.4197241522E+02               0
GRID*               1490               0-5.364978842E-017.4807260310E+00+
*       2.4197241562E+02               0
GRID*               1491               0-4.203820929E+006.2110374601E+00+
*       2.4197241565E+02               0
GRID*               1492               0-6.746902558E+003.2755489844E+00+
*       2.4197241522E+02               0
GRID*               1493               0-7.480726031E+00-5.364978842E-01+
*       2.4197241562E+02               0
GRID*               1494               0-6.211037460E+00-4.203820929E+00+
*       2.4197241565E+02               0
GRID*               1495               0-3.275548984E+00-6.746902558E+00+
*       2.4197241522E+02               0
GRID*               1496               05.3649788415E-01-7.480726031E+00+
*       2.4197241562E+02               0
GRID*               1497               04.2038209294E+00-6.211037460E+00+
*       2.4197241565E+02               0
GRID*               1498               06.7469025583E+00-3.275548984E+00+
*       2.4197241522E+02               0
GRID*               1499               06.2108787922E+004.2040516459E+00+
*       2.3779510049E+02               0
GRID*               1500               03.2753178944E+006.7470148196E+00+
*       2.3779509947E+02               0
GRID*               1501               0-5.367771752E-017.4807039152E+00+
*       2.3779510045E+02               0
GRID*               1502               0-4.204051646E+006.2108787922E+00+
*       2.3779510049E+02               0
GRID*               1503               0-6.747014820E+003.2753178944E+00+
*       2.3779509947E+02               0
GRID*               1504               0-7.480703915E+00-5.367771752E-01+
*       2.3779510045E+02               0
GRID*               1505               0-6.210878792E+00-4.204051646E+00+
*       2.3779510049E+02               0
GRID*               1506               0-3.275317894E+00-6.747014820E+00+
*       2.3779509947E+02               0
GRID*               1507               05.3677717522E-01-7.480703915E+00+
*       2.3779510045E+02               0
GRID*               1508               04.2040516459E+00-6.210878792E+00+
*       2.3779510049E+02               0
GRID*               1509               06.7470148196E+00-3.275317894E+00+
*       2.3779509947E+02               0
GRID*               1510               06.2107057203E+004.2043022724E+00+
*       2.3341651743E+02               0
GRID*               1511               03.2750741905E+006.7471332088E+00+
*       2.3341651557E+02               0
GRID*               1512               0-5.370809588E-017.4806792727E+00+
*       2.3341651739E+02               0
GRID*               1513               0-4.204302272E+006.2107057203E+00+
*       2.3341651743E+02               0
GRID*               1514               0-6.747133209E+003.2750741905E+00+
*       2.3341651557E+02               0
GRID*               1515               0-7.480679273E+00-5.370809588E-01+
*       2.3341651739E+02               0
GRID*               1516               0-6.210705720E+00-4.204302272E+00+
*       2.3341651743E+02               0
GRID*               1517               0-3.275074191E+00-6.747133209E+00+
*       2.3341651557E+02               0
GRID*               1518               05.3708095884E-01-7.480679273E+00+
*       2.3341651739E+02               0
GRID*               1519               04.2043022724E+00-6.210705720E+00+
*       2.3341651743E+02               0
GRID*               1520               06.7471332088E+00-3.275074191E+00+
*       2.3341651557E+02               0
GRID*               1521               06.2105160588E+004.2045760807E+00+
*       2.2876234697E+02               0
GRID*               1522               03.2748159111E+006.7472586629E+00+
*       2.2876234401E+02               0
GRID*               1523               0-5.374131506E-017.4806518470E+00+
*       2.2876234693E+02               0
GRID*               1524               0-4.204576081E+006.2105160588E+00+
*       2.2876234697E+02               0
GRID*               1525               0-6.747258663E+003.2748159111E+00+
*       2.2876234401E+02               0
GRID*               1526               0-7.480651847E+00-5.374131506E-01+
*       2.2876234693E+02               0
GRID*               1527               0-6.210516059E+00-4.204576081E+00+
*       2.2876234697E+02               0
GRID*               1528               0-3.274815911E+00-6.747258663E+00+
*       2.2876234401E+02               0
GRID*               1529               05.3741315062E-01-7.480651847E+00+
*       2.2876234693E+02               0
GRID*               1530               04.2045760807E+00-6.210516059E+00+
*       2.2876234697E+02               0
GRID*               1531               06.7472586629E+00-3.274815911E+00+
*       2.2876234401E+02               0
GRID*               1532               06.2103079437E+004.2048759410E+00+
*       2.2375498709E+02               0
GRID*               1533               03.2745421485E+006.7473915978E+00+
*       2.2375498277E+02               0
GRID*               1534               0-5.377771496E-017.4806214604E+00+
*       2.2375498707E+02               0
GRID*               1535               0-4.204875941E+006.2103079437E+00+
*       2.2375498709E+02               0
GRID*               1536               0-6.747391598E+003.2745421485E+00+
*       2.2375498277E+02               0
GRID*               1537               0-7.480621460E+00-5.377771496E-01+
*       2.2375498707E+02               0
GRID*               1538               0-6.210307944E+00-4.204875941E+00+
*       2.2375498709E+02               0
GRID*               1539               0-3.274542149E+00-6.747391598E+00+
*       2.2375498277E+02               0
GRID*               1540               05.3777714962E-01-7.480621460E+00+
*       2.2375498707E+02               0
GRID*               1541               04.2048759410E+00-6.210307944E+00+
*       2.2375498709E+02               0
GRID*               1542               06.7473915978E+00-3.274542149E+00+
*       2.2375498277E+02               0
GRID*               1543               06.2100806794E+004.2052031945E+00+
*       2.1831767063E+02               0
GRID*               1544               03.2742543023E+006.7475312928E+00+
*       2.1831766466E+02               0
GRID*               1545               0-5.381744300E-017.4805881847E+00+
*       2.1831767061E+02               0
GRID*               1546               0-4.205203194E+006.2100806794E+00+
*       2.1831767063E+02               0
GRID*               1547               0-6.747531293E+003.2742543023E+00+
*       2.1831766466E+02               0
GRID*               1548               0-7.480588185E+00-5.381744300E-01+
*       2.1831767061E+02               0
GRID*               1549               0-6.210080679E+00-4.205203194E+00+
*       2.1831767063E+02               0
GRID*               1550               0-3.274254302E+00-6.747531293E+00+
*       2.1831766466E+02               0
GRID*               1551               05.3817443000E-01-7.480588185E+00+
*       2.1831767061E+02               0
GRID*               1552               04.2052031945E+00-6.210080679E+00+
*       2.1831767063E+02               0
GRID*               1553               06.7475312928E+00-3.274254302E+00+
*       2.1831766466E+02               0
GRID*               1554               06.2098363027E+004.2055555629E+00+
*       2.1238365791E+02               0
GRID*               1555               03.2739582719E+006.7476748141E+00+
*       2.1238365008E+02               0
GRID*               1556               0-5.386019339E-017.4805526523E+00+
*       2.1238365791E+02               0
GRID*               1557               0-4.205555563E+006.2098363027E+00+
*       2.1238365791E+02               0
GRID*               1558               0-6.747674814E+003.2739582719E+00+
*       2.1238365008E+02               0
GRID*               1559               0-7.480552652E+00-5.386019339E-01+
*       2.1238365791E+02               0
GRID*               1560               0-6.209836303E+00-4.205555563E+00+
*       2.1238365791E+02               0
GRID*               1561               0-3.273958272E+00-6.747674814E+00+
*       2.1238365008E+02               0
GRID*               1562               05.3860193386E-01-7.480552652E+00+
*       2.1238365791E+02               0
GRID*               1563               04.2055555629E+00-6.209836303E+00+
*       2.1238365791E+02               0
GRID*               1564               06.7476748141E+00-3.273958272E+00+
*       2.1238365008E+02               0
GRID*               1565               06.2095822801E+004.2059235427E+00+
*       2.0591219203E+02               0
GRID*               1566               03.2736663795E+006.7478160743E+00+
*       2.0591218225E+02               0
GRID*               1567               0-5.390475751E-017.4805165920E+00+
*       2.0591219203E+02               0
GRID*               1568               0-4.205923543E+006.2095822801E+00+
*       2.0591219203E+02               0
GRID*               1569               0-6.747816074E+003.2736663795E+00+
*       2.0591218225E+02               0
GRID*               1570               0-7.480516592E+00-5.390475751E-01+
*       2.0591219203E+02               0
GRID*               1571               0-6.209582280E+00-4.205923543E+00+
*       2.0591219203E+02               0
GRID*               1572               0-3.273666380E+00-6.747816074E+00+
*       2.0591218225E+02               0
GRID*               1573               05.3904757509E-01-7.480516592E+00+
*       2.0591219203E+02               0
GRID*               1574               04.2059235427E+00-6.209582280E+00+
*       2.0591219203E+02               0
GRID*               1575               06.7478160743E+00-3.273666380E+00+
*       2.0591218225E+02               0
GRID*               1576               06.2093358949E+004.2062845617E+00+
*       1.9891057510E+02               0
GRID*               1577               03.2733375766E+006.7479752828E+00+
*       1.9891056433E+02               0
GRID*               1578               0-5.394829434E-017.4804837128E+00+
*       1.9891057511E+02               0
GRID*               1579               0-4.206284562E+006.2093358949E+00+
*       1.9891057510E+02               0
GRID*               1580               0-6.747975283E+003.2733375766E+00+
*       1.9891056433E+02               0
GRID*               1581               0-7.480483713E+00-5.394829434E-01+
*       1.9891057511E+02               0
GRID*               1582               0-6.209335895E+00-4.206284562E+00+
*       1.9891057510E+02               0
GRID*               1583               0-3.273337577E+00-6.747975283E+00+
*       1.9891056433E+02               0
GRID*               1584               05.3948294338E-01-7.480483713E+00+
*       1.9891057511E+02               0
GRID*               1585               04.2062845617E+00-6.209335895E+00+
*       1.9891057510E+02               0
GRID*               1586               06.7479752828E+00-3.273337577E+00+
*       1.9891056433E+02               0
GRID*               1587               06.2091314499E+004.2065934701E+00+
*       1.9145619997E+02               0
GRID*               1588               03.2729556737E+006.7481604358E+00+
*       1.9145619045E+02               0
GRID*               1589               0-5.398513911E-017.4804611956E+00+
*       1.9145619996E+02               0
GRID*               1590               0-4.206593470E+006.2091314499E+00+
*       1.9145619997E+02               0
GRID*               1591               0-6.748160436E+003.2729556738E+00+
*       1.9145619045E+02               0
GRID*               1592               0-7.480461196E+00-5.398513911E-01+
*       1.9145619996E+02               0
GRID*               1593               0-6.209131450E+00-4.206593470E+00+
*       1.9145619997E+02               0
GRID*               1594               0-3.272955674E+00-6.748160436E+00+
*       1.9145619045E+02               0
GRID*               1595               05.3985139109E-01-7.480461196E+00+
*       1.9145619996E+02               0
GRID*               1596               04.2065934701E+00-6.209131450E+00+
*       1.9145619997E+02               0
GRID*               1597               06.7481604358E+00-3.272955674E+00+
*       1.9145619045E+02               0
GRID*               1598               06.2090345386E+004.2067638922E+00+
*       1.8370564614E+02               0
GRID*               1599               03.2725381127E+006.7483630016E+00+
*       1.8370564207E+02               0
GRID*               1600               0-5.400445732E-017.4804627510E+00+
*       1.8370564607E+02               0
GRID*               1601               0-4.206763892E+006.2090345386E+00+
*       1.8370564614E+02               0
GRID*               1602               0-6.748363002E+003.2725381127E+00+
*       1.8370564207E+02               0
GRID*               1603               0-7.480462751E+00-5.400445732E-01+
*       1.8370564607E+02               0
GRID*               1604               0-6.209034539E+00-4.206763892E+00+
*       1.8370564614E+02               0
GRID*               1605               0-3.272538113E+00-6.748363002E+00+
*       1.8370564207E+02               0
GRID*               1606               05.4004457324E-01-7.480462751E+00+
*       1.8370564607E+02               0
GRID*               1607               04.2067638922E+00-6.209034539E+00+
*       1.8370564614E+02               0
GRID*               1608               06.7483630016E+00-3.272538113E+00+
*       1.8370564207E+02               0
GRID*               1609               06.2088785074E+004.2070351493E+00+
*       1.7602816714E+02               0
GRID*               1610               03.2718891025E+006.7486778269E+00+
*       1.7602817133E+02               0
GRID*               1611               0-5.403586170E-017.4804629453E+00+
*       1.7602816710E+02               0
GRID*               1612               0-4.207035149E+006.2088785074E+00+
*       1.7602816714E+02               0
GRID*               1613               0-6.748677827E+003.2718891025E+00+
*       1.7602817133E+02               0
GRID*               1614               0-7.480462945E+00-5.403586170E-01+
*       1.7602816710E+02               0
GRID*               1615               0-6.208878507E+00-4.207035149E+00+
*       1.7602816714E+02               0
GRID*               1616               0-3.271889102E+00-6.748677827E+00+
*       1.7602817133E+02               0
GRID*               1617               05.4035861698E-01-7.480462945E+00+
*       1.7602816710E+02               0
GRID*               1618               04.2070351493E+00-6.208878507E+00+
*       1.7602816714E+02               0
GRID*               1619               06.7486778269E+00-3.271889102E+00+
*       1.7602817133E+02               0
GRID*               1620               06.2084710925E+004.2076372367E+00+
*       1.6918860466E+02               0
GRID*               1621               03.2712092299E+006.7490075354E+00+
*       1.6918860929E+02               0
GRID*               1622               0-5.410854745E-017.4804107906E+00+
*       1.6918860467E+02               0
GRID*               1623               0-4.207637237E+006.2084710925E+00+
*       1.6918860466E+02               0
GRID*               1624               0-6.749007535E+003.2712092299E+00+
*       1.6918860929E+02               0
GRID*               1625               0-7.480410791E+00-5.410854745E-01+
*       1.6918860467E+02               0
GRID*               1626               0-6.208471092E+00-4.207637237E+00+
*       1.6918860466E+02               0
GRID*               1627               0-3.271209230E+00-6.749007535E+00+
*       1.6918860929E+02               0
GRID*               1628               05.4108547447E-01-7.480410791E+00+
*       1.6918860467E+02               0
GRID*               1629               04.2076372367E+00-6.208471092E+00+
*       1.6918860466E+02               0
GRID*               1630               06.7490075354E+00-3.271209230E+00+
*       1.6918860929E+02               0
GRID*               1631               06.2080672209E+004.2082211891E+00+
*       1.6363962918E+02               0
GRID*               1632               03.2706600882E+006.7492737679E+00+
*       1.6363963167E+02               0
GRID*               1633               0-5.417935459E-017.4803528444E+00+
*       1.6363962921E+02               0
GRID*               1634               0-4.208221189E+006.2080672209E+00+
*       1.6363962918E+02               0
GRID*               1635               0-6.749273768E+003.2706600882E+00+
*       1.6363963167E+02               0
GRID*               1636               0-7.480352844E+00-5.417935459E-01+
*       1.6363962921E+02               0
GRID*               1637               0-6.208067221E+00-4.208221189E+00+
*       1.6363962918E+02               0
GRID*               1638               0-3.270660088E+00-6.749273768E+00+
*       1.6363963167E+02               0
GRID*               1639               05.4179354593E-01-7.480352844E+00+
*       1.6363962921E+02               0
GRID*               1640               04.2082211891E+00-6.208067221E+00+
*       1.6363962918E+02               0
GRID*               1641               06.7492737679E+00-3.270660088E+00+
*       1.6363963167E+02               0
GRID*               1642               06.2077348595E+004.2087016148E+00+
*       1.5908014990E+02               0
GRID*               1643               03.2702122923E+006.7494908008E+00+
*       1.5908015058E+02               0
GRID*               1644               0-5.423758018E-017.4803051364E+00+
*       1.5908014992E+02               0
GRID*               1645               0-4.208701615E+006.2077348595E+00+
*       1.5908014990E+02               0
GRID*               1646               0-6.749490801E+003.2702122923E+00+
*       1.5908015058E+02               0
GRID*               1647               0-7.480305136E+00-5.423758018E-01+
*       1.5908014992E+02               0
GRID*               1648               0-6.207734860E+00-4.208701615E+00+
*       1.5908014990E+02               0
GRID*               1649               0-3.270212292E+00-6.749490801E+00+
*       1.5908015058E+02               0
GRID*               1650               05.4237580176E-01-7.480305136E+00+
*       1.5908014992E+02               0
GRID*               1651               04.2087016148E+00-6.207734860E+00+
*       1.5908014990E+02               0
GRID*               1652               06.7494908008E+00-3.270212292E+00+
*       1.5908015058E+02               0
GRID*               1653               06.2111116115E+004.2037126961E+00+
*       2.4399547215E+02               0
GRID*               1654               04.9104105071E+005.6689480229E+00+
*       2.4399547216E+02               0
GRID*               1655               04.9105076327E+005.6688646215E+00+
*       2.4601852872E+02               0
GRID*               1656               04.9103108107E+005.6690333948E+00+
*       2.4197241566E+02               0
GRID*               1657               03.2756598609E+006.7468486992E+00+
*       2.4399547192E+02               0
GRID*               1658               01.4194453858E+007.3643928982E+00+
*       2.4399547213E+02               0
GRID*               1659               01.4195711538E+007.3643692176E+00+
*       2.4601852870E+02               0
GRID*               1660               01.4193164203E+007.3644169978E+00+
*       2.4197241562E+02               0
GRID*               1661               0-5.363670210E-017.4807361600E+00+
*       2.4399547212E+02               0
GRID*               1662               0-2.454501165E+007.0869837709E+00+
*       2.4399547192E+02               0
GRID*               1663               0-2.454385672E+007.0870237488E+00+
*       2.4601852863E+02               0
GRID*               1664               0-2.454617650E+007.0869434533E+00+
*       2.4197241522E+02               0
GRID*               1665               0-4.203712696E+006.2111116115E+00+
*       2.4399547215E+02               0
GRID*               1666               0-5.668948023E+004.9104105071E+00+
*       2.4399547216E+02               0
GRID*               1667               0-5.668864621E+004.9105076327E+00+
*       2.4601852872E+02               0
GRID*               1668               0-5.669033395E+004.9103108107E+00+
*       2.4197241566E+02               0
GRID*               1669               0-6.746848699E+003.2756598609E+00+
*       2.4399547192E+02               0
GRID*               1670               0-7.364392898E+001.4194453858E+00+
*       2.4399547213E+02               0
GRID*               1671               0-7.364369218E+001.4195711538E+00+
*       2.4601852870E+02               0
GRID*               1672               0-7.364416998E+001.4193164203E+00+
*       2.4197241562E+02               0
GRID*               1673               0-7.480736160E+00-5.363670210E-01+
*       2.4399547212E+02               0
GRID*               1674               0-7.086983771E+00-2.454501165E+00+
*       2.4399547192E+02               0
GRID*               1675               0-7.087023749E+00-2.454385672E+00+
*       2.4601852863E+02               0
GRID*               1676               0-7.086943453E+00-2.454617650E+00+
*       2.4197241522E+02               0
GRID*               1677               0-6.211111611E+00-4.203712696E+00+
*       2.4399547215E+02               0
GRID*               1678               0-4.910410507E+00-5.668948023E+00+
*       2.4399547216E+02               0
GRID*               1679               0-4.910507633E+00-5.668864621E+00+
*       2.4601852872E+02               0
GRID*               1680               0-4.910310811E+00-5.669033395E+00+
*       2.4197241566E+02               0
GRID*               1681               0-3.275659861E+00-6.746848699E+00+
*       2.4399547192E+02               0
GRID*               1682               0-1.419445386E+00-7.364392898E+00+
*       2.4399547213E+02               0
GRID*               1683               0-1.419571154E+00-7.364369218E+00+
*       2.4601852870E+02               0
GRID*               1684               0-1.419316420E+00-7.364416998E+00+
*       2.4197241562E+02               0
GRID*               1685               05.3636702095E-01-7.480736160E+00+
*       2.4399547212E+02               0
GRID*               1686               02.4545011647E+00-7.086983771E+00+
*       2.4399547192E+02               0
GRID*               1687               02.4543856719E+00-7.087023749E+00+
*       2.4601852863E+02               0
GRID*               1688               02.4546176503E+00-7.086943453E+00+
*       2.4197241522E+02               0
GRID*               1689               04.2037126961E+00-6.211111611E+00+
*       2.4399547215E+02               0
GRID*               1690               05.6689480229E+00-4.910410507E+00+
*       2.4399547216E+02               0
GRID*               1691               05.6688646215E+00-4.910507633E+00+
*       2.4601852872E+02               0
GRID*               1692               05.6690333948E+00-4.910310811E+00+
*       2.4197241566E+02               0
GRID*               1693               06.7468486992E+00-3.275659861E+00+
*       2.4399547192E+02               0
GRID*               1694               06.2109590053E+004.2039351436E+00+
*       2.3988375804E+02               0
GRID*               1695               04.9102053973E+005.6691234388E+00+
*       2.3988375805E+02               0
GRID*               1696               04.9100976841E+005.6692152451E+00+
*       2.3779510050E+02               0
GRID*               1697               03.2754337291E+006.7469585474E+00+
*       2.3988375735E+02               0
GRID*               1698               01.4191801828E+007.3644422835E+00+
*       2.3988375801E+02               0
GRID*               1699               01.4190410840E+007.3644679439E+00+
*       2.3779510045E+02               0
GRID*               1700               0-5.366360935E-017.4807151631E+00+
*       2.3988375800E+02               0
GRID*               1701               0-2.454738738E+007.0869015456E+00+
*       2.3988375735E+02               0
GRID*               1702               0-2.454860436E+007.0868594282E+00+
*       2.3779509947E+02               0
GRID*               1703               0-4.203935144E+006.2109590053E+00+
*       2.3988375804E+02               0
GRID*               1704               0-5.669123439E+004.9102053973E+00+
*       2.3988375805E+02               0
GRID*               1705               0-5.669215245E+004.9100976841E+00+
*       2.3779510050E+02               0
GRID*               1706               0-6.746958547E+003.2754337291E+00+
*       2.3988375735E+02               0
GRID*               1707               0-7.364442284E+001.4191801828E+00+
*       2.3988375801E+02               0
GRID*               1708               0-7.364467944E+001.4190410840E+00+
*       2.3779510045E+02               0
GRID*               1709               0-7.480715163E+00-5.366360935E-01+
*       2.3988375800E+02               0
GRID*               1710               0-7.086901546E+00-2.454738738E+00+
*       2.3988375735E+02               0
GRID*               1711               0-7.086859428E+00-2.454860436E+00+
*       2.3779509947E+02               0
GRID*               1712               0-6.210959005E+00-4.203935144E+00+
*       2.3988375804E+02               0
GRID*               1713               0-4.910205397E+00-5.669123439E+00+
*       2.3988375805E+02               0
GRID*               1714               0-4.910097684E+00-5.669215245E+00+
*       2.3779510050E+02               0
GRID*               1715               0-3.275433729E+00-6.746958547E+00+
*       2.3988375735E+02               0
GRID*               1716               0-1.419180183E+00-7.364442284E+00+
*       2.3988375801E+02               0
GRID*               1717               0-1.419041084E+00-7.364467944E+00+
*       2.3779510045E+02               0
GRID*               1718               05.3663609355E-01-7.480715163E+00+
*       2.3988375800E+02               0
GRID*               1719               02.4547387383E+00-7.086901546E+00+
*       2.3988375735E+02               0
GRID*               1720               02.4548604362E+00-7.086859428E+00+
*       2.3779509947E+02               0
GRID*               1721               04.2039351436E+00-6.210959005E+00+
*       2.3988375804E+02               0
GRID*               1722               05.6691234388E+00-4.910205397E+00+
*       2.3988375805E+02               0
GRID*               1723               05.6692152451E+00-4.910097684E+00+
*       2.3779510050E+02               0
GRID*               1724               06.7469585474E+00-3.275433729E+00+
*       2.3988375735E+02               0
GRID*               1725               06.2107930199E+004.2041759658E+00+
*       2.3560580894E+02               0
GRID*               1726               04.9099825661E+005.6693131719E+00+
*       2.3560580895E+02               0
GRID*               1727               04.9098654521E+005.6694126275E+00+
*       2.3341651744E+02               0
GRID*               1728               03.2751961026E+006.7470739858E+00+
*       2.3560580753E+02               0
GRID*               1729               01.4188925265E+007.3644952012E+00+
*       2.3560580890E+02               0
GRID*               1730               01.4187414841E+007.3645227833E+00+
*       2.3341651739E+02               0
GRID*               1731               0-5.369278208E-017.4806917591E+00+
*       2.3560580889E+02               0
GRID*               1732               0-2.454988393E+007.0868151450E+00+
*       2.3560580753E+02               0
GRID*               1733               0-2.455116474E+007.0867708168E+00+
*       2.3341651557E+02               0
GRID*               1734               0-4.204175966E+006.2107930199E+00+
*       2.3560580894E+02               0
GRID*               1735               0-5.669313172E+004.9099825661E+00+
*       2.3560580895E+02               0
GRID*               1736               0-5.669412628E+004.9098654521E+00+
*       2.3341651744E+02               0
GRID*               1737               0-6.747073986E+003.2751961026E+00+
*       2.3560580753E+02               0
GRID*               1738               0-7.364495201E+001.4188925265E+00+
*       2.3560580890E+02               0
GRID*               1739               0-7.364522783E+001.4187414841E+00+
*       2.3341651739E+02               0
GRID*               1740               0-7.480691759E+00-5.369278208E-01+
*       2.3560580889E+02               0
GRID*               1741               0-7.086815145E+00-2.454988393E+00+
*       2.3560580753E+02               0
GRID*               1742               0-7.086770817E+00-2.455116474E+00+
*       2.3341651557E+02               0
GRID*               1743               0-6.210793020E+00-4.204175966E+00+
*       2.3560580894E+02               0
GRID*               1744               0-4.909982566E+00-5.669313172E+00+
*       2.3560580895E+02               0
GRID*               1745               0-4.909865452E+00-5.669412628E+00+
*       2.3341651744E+02               0
GRID*               1746               0-3.275196103E+00-6.747073986E+00+
*       2.3560580753E+02               0
GRID*               1747               0-1.418892526E+00-7.364495201E+00+
*       2.3560580890E+02               0
GRID*               1748               0-1.418741484E+00-7.364522783E+00+
*       2.3341651739E+02               0
GRID*               1749               05.3692782082E-01-7.480691759E+00+
*       2.3560580889E+02               0
GRID*               1750               02.4549883928E+00-7.086815145E+00+
*       2.3560580753E+02               0
GRID*               1751               02.4551164745E+00-7.086770817E+00+
*       2.3341651557E+02               0
GRID*               1752               04.2041759658E+00-6.210793020E+00+
*       2.3560580894E+02               0
GRID*               1753               05.6693131719E+00-4.909982566E+00+
*       2.3560580895E+02               0
GRID*               1754               05.6694126275E+00-4.909865452E+00+
*       2.3341651744E+02               0
GRID*               1755               06.7470739858E+00-3.275196103E+00+
*       2.3560580753E+02               0
GRID*               1756               06.2106114945E+004.2044383903E+00+
*       2.3108943218E+02               0
GRID*               1757               04.9097390974E+005.6695197745E+00+
*       2.3108943219E+02               0
GRID*               1758               04.9096111643E+005.6696281296E+00+
*       2.2876234699E+02               0
GRID*               1759               03.2749447861E+006.7471960676E+00+
*       2.3108942980E+02               0
GRID*               1760               01.4185786066E+007.3645524056E+00+
*       2.3108943214E+02               0
GRID*               1761               01.4184137616E+007.3645822842E+00+
*       2.2876234693E+02               0
GRID*               1762               0-5.372460696E-017.4806656908E+00+
*       2.3108943214E+02               0
GRID*               1763               0-2.455252425E+007.0867237616E+00+
*       2.3108942980E+02               0
GRID*               1764               0-2.455387815E+007.0866768945E+00+
*       2.2876234401E+02               0
GRID*               1765               0-4.204438390E+006.2106114945E+00+
*       2.3108943218E+02               0
GRID*               1766               0-5.669519775E+004.9097390974E+00+
*       2.3108943219E+02               0
GRID*               1767               0-5.669628130E+004.9096111643E+00+
*       2.2876234699E+02               0
GRID*               1768               0-6.747196068E+003.2749447861E+00+
*       2.3108942980E+02               0
GRID*               1769               0-7.364552406E+001.4185786066E+00+
*       2.3108943214E+02               0
GRID*               1770               0-7.364582284E+001.4184137616E+00+
*       2.2876234693E+02               0
GRID*               1771               0-7.480665691E+00-5.372460696E-01+
*       2.3108943214E+02               0
GRID*               1772               0-7.086723762E+00-2.455252425E+00+
*       2.3108942980E+02               0
GRID*               1773               0-7.086676895E+00-2.455387815E+00+
*       2.2876234401E+02               0
GRID*               1774               0-6.210611495E+00-4.204438390E+00+
*       2.3108943218E+02               0
GRID*               1775               0-4.909739097E+00-5.669519775E+00+
*       2.3108943219E+02               0
GRID*               1776               0-4.909611164E+00-5.669628130E+00+
*       2.2876234699E+02               0
GRID*               1777               0-3.274944786E+00-6.747196068E+00+
*       2.3108942980E+02               0
GRID*               1778               0-1.418578607E+00-7.364552406E+00+
*       2.3108943214E+02               0
GRID*               1779               0-1.418413762E+00-7.364582284E+00+
*       2.2876234693E+02               0
GRID*               1780               05.3724606955E-01-7.480665691E+00+
*       2.3108943214E+02               0
GRID*               1781               02.4552524250E+00-7.086723762E+00+
*       2.3108942980E+02               0
GRID*               1782               02.4553878148E+00-7.086676895E+00+
*       2.2876234401E+02               0
GRID*               1783               04.2044383903E+00-6.210611495E+00+
*       2.3108943218E+02               0
GRID*               1784               05.6695197745E+00-4.909739097E+00+
*       2.3108943219E+02               0
GRID*               1785               05.6696281296E+00-4.909611164E+00+
*       2.2876234699E+02               0
GRID*               1786               06.7471960676E+00-3.274944786E+00+
*       2.3108942980E+02               0
GRID*               1787               06.2104123533E+004.2047255545E+00+
*       2.2625866702E+02               0
GRID*               1788               04.9094721847E+005.6697457308E+00+
*       2.2625866704E+02               0
GRID*               1789               04.9093322918E+005.6698640292E+00+
*       2.2375498712E+02               0
GRID*               1790               03.2746782686E+006.7473255067E+00+
*       2.2625866340E+02               0
GRID*               1791               01.4182347368E+007.3646146473E+00+
*       2.2625866698E+02               0
GRID*               1792               01.4180545688E+007.3646471579E+00+
*       2.2375498705E+02               0
GRID*               1793               0-5.375945807E-017.4806367301E+00+
*       2.2625866699E+02               0
GRID*               1794               0-2.455532408E+007.0866268321E+00+
*       2.2625866340E+02               0
GRID*               1795               0-2.455675393E+007.0865773139E+00+
*       2.2375498277E+02               0
GRID*               1796               0-4.204725554E+006.2104123533E+00+
*       2.2625866702E+02               0
GRID*               1797               0-5.669745731E+004.9094721847E+00+
*       2.2625866704E+02               0
GRID*               1798               0-5.669864029E+004.9093322918E+00+
*       2.2375498712E+02               0
GRID*               1799               0-6.747325507E+003.2746782686E+00+
*       2.2625866340E+02               0
GRID*               1800               0-7.364614647E+001.4182347368E+00+
*       2.2625866698E+02               0
GRID*               1801               0-7.364647158E+001.4180545689E+00+
*       2.2375498705E+02               0
GRID*               1802               0-7.480636730E+00-5.375945807E-01+
*       2.2625866699E+02               0
GRID*               1803               0-7.086626832E+00-2.455532408E+00+
*       2.2625866340E+02               0
GRID*               1804               0-7.086577314E+00-2.455675393E+00+
*       2.2375498277E+02               0
GRID*               1805               0-6.210412353E+00-4.204725554E+00+
*       2.2625866702E+02               0
GRID*               1806               0-4.909472185E+00-5.669745731E+00+
*       2.2625866704E+02               0
GRID*               1807               0-4.909332292E+00-5.669864029E+00+
*       2.2375498712E+02               0
GRID*               1808               0-3.274678269E+00-6.747325507E+00+
*       2.2625866340E+02               0
GRID*               1809               0-1.418234737E+00-7.364614647E+00+
*       2.2625866698E+02               0
GRID*               1810               0-1.418054569E+00-7.364647158E+00+
*       2.2375498705E+02               0
GRID*               1811               05.3759458072E-01-7.480636730E+00+
*       2.2625866699E+02               0
GRID*               1812               02.4555324085E+00-7.086626832E+00+
*       2.2625866340E+02               0
GRID*               1813               02.4556753933E+00-7.086577314E+00+
*       2.2375498277E+02               0
GRID*               1814               04.2047255545E+00-6.210412353E+00+
*       2.2625866702E+02               0
GRID*               1815               05.6697457308E+00-4.909472185E+00+
*       2.2625866704E+02               0
GRID*               1816               05.6698640292E+00-4.909332292E+00+
*       2.2375498712E+02               0
GRID*               1817               06.7473255067E+00-3.274678269E+00+
*       2.2625866340E+02               0
GRID*               1818               06.2101942279E+004.2050396794E+00+
*       2.2103632886E+02               0
GRID*               1819               04.9091799513E+005.6699928154E+00+
*       2.2103632889E+02               0
GRID*               1820               04.9090278427E+005.6701214194E+00+
*       2.1831767065E+02               0
GRID*               1821               03.2743966669E+006.7474622146E+00+
*       2.2103632373E+02               0
GRID*               1822               01.4178583791E+007.3646825293E+00+
*       2.2103632883E+02               0
GRID*               1823               01.4176624657E+007.3647178610E+00+
*       2.1831767059E+02               0
GRID*               1824               0-5.379759362E-017.4806048050E+00+
*       2.2103632884E+02               0
GRID*               1825               0-2.455828198E+007.0865243763E+00+
*       2.2103632373E+02               0
GRID*               1826               0-2.455977711E+007.0864725551E+00+
*       2.1831766466E+02               0
GRID*               1827               0-4.205039679E+006.2101942279E+00+
*       2.2103632886E+02               0
GRID*               1828               0-5.669992815E+004.9091799513E+00+
*       2.2103632889E+02               0
GRID*               1829               0-5.670121419E+004.9090278427E+00+
*       2.1831767065E+02               0
GRID*               1830               0-6.747462215E+003.2743966669E+00+
*       2.2103632373E+02               0
GRID*               1831               0-7.364682529E+001.4178583791E+00+
*       2.2103632883E+02               0
GRID*               1832               0-7.364717861E+001.4176624657E+00+
*       2.1831767059E+02               0
GRID*               1833               0-7.480604805E+00-5.379759362E-01+
*       2.2103632884E+02               0
GRID*               1834               0-7.086524376E+00-2.455828198E+00+
*       2.2103632373E+02               0
GRID*               1835               0-7.086472555E+00-2.455977711E+00+
*       2.1831766466E+02               0
GRID*               1836               0-6.210194228E+00-4.205039679E+00+
*       2.2103632886E+02               0
GRID*               1837               0-4.909179951E+00-5.669992815E+00+
*       2.2103632889E+02               0
GRID*               1838               0-4.909027843E+00-5.670121419E+00+
*       2.1831767065E+02               0
GRID*               1839               0-3.274396667E+00-6.747462215E+00+
*       2.2103632373E+02               0
GRID*               1840               0-1.417858379E+00-7.364682529E+00+
*       2.2103632883E+02               0
GRID*               1841               0-1.417662466E+00-7.364717861E+00+
*       2.1831767059E+02               0
GRID*               1842               05.3797593620E-01-7.480604805E+00+
*       2.2103632885E+02               0
GRID*               1843               02.4558281979E+00-7.086524376E+00+
*       2.2103632373E+02               0
GRID*               1844               02.4559777106E+00-7.086472555E+00+
*       2.1831766466E+02               0
GRID*               1845               04.2050396794E+00-6.210194228E+00+
*       2.2103632886E+02               0
GRID*               1846               05.6699928154E+00-4.909179951E+00+
*       2.2103632889E+02               0
GRID*               1847               05.6701214194E+00-4.909027843E+00+
*       2.1831767065E+02               0
GRID*               1848               06.7474622146E+00-3.274396667E+00+
*       2.2103632373E+02               0
GRID*               1849               06.2099576320E+004.2053805015E+00+
*       2.1535066430E+02               0
GRID*               1850               04.9088629999E+005.6702608757E+00+
*       2.1535066433E+02               0
GRID*               1851               04.9087004266E+005.6703985853E+00+
*       2.1238365794E+02               0
GRID*               1852               03.2741034065E+006.7476044740E+00+
*       2.1535065740E+02               0
GRID*               1853               01.4174500831E+007.3647562284E+00+
*       2.1535066427E+02               0
GRID*               1854               01.4172405032E+007.3647942228E+00+
*       2.1238365788E+02               0
GRID*               1855               0-5.383896019E-017.4805702337E+00+
*       2.1535066429E+02               0
GRID*               1856               0-2.456136157E+007.0864176029E+00+
*       2.1535065740E+02               0
GRID*               1857               0-2.456288521E+007.0863647157E+00+
*       2.1238365008E+02               0
GRID*               1858               0-4.205380501E+006.2099576320E+00+
*       2.1535066430E+02               0
GRID*               1859               0-5.670260876E+004.9088629999E+00+
*       2.1535066433E+02               0
GRID*               1860               0-5.670398585E+004.9087004266E+00+
*       2.1238365794E+02               0
GRID*               1861               0-6.747604474E+003.2741034065E+00+
*       2.1535065740E+02               0
GRID*               1862               0-7.364756228E+001.4174500831E+00+
*       2.1535066427E+02               0
GRID*               1863               0-7.364794223E+001.4172405032E+00+
*       2.1238365788E+02               0
GRID*               1864               0-7.480570234E+00-5.383896019E-01+
*       2.1535066429E+02               0
GRID*               1865               0-7.086417603E+00-2.456136157E+00+
*       2.1535065740E+02               0
GRID*               1866               0-7.086364716E+00-2.456288521E+00+
*       2.1238365008E+02               0
GRID*               1867               0-6.209957632E+00-4.205380501E+00+
*       2.1535066430E+02               0
GRID*               1868               0-4.908863000E+00-5.670260876E+00+
*       2.1535066433E+02               0
GRID*               1869               0-4.908700427E+00-5.670398585E+00+
*       2.1238365794E+02               0
GRID*               1870               0-3.274103407E+00-6.747604474E+00+
*       2.1535065740E+02               0
GRID*               1871               0-1.417450083E+00-7.364756228E+00+
*       2.1535066427E+02               0
GRID*               1872               0-1.417240503E+00-7.364794223E+00+
*       2.1238365788E+02               0
GRID*               1873               05.3838960190E-01-7.480570234E+00+
*       2.1535066429E+02               0
GRID*               1874               02.4561361571E+00-7.086417603E+00+
*       2.1535065740E+02               0
GRID*               1875               02.4562885209E+00-7.086364716E+00+
*       2.1238365008E+02               0
GRID*               1876               04.2053805015E+00-6.209957632E+00+
*       2.1535066430E+02               0
GRID*               1877               05.6702608757E+00-4.908863000E+00+
*       2.1535066433E+02               0
GRID*               1878               05.6703985853E+00-4.908700427E+00+
*       2.1238365794E+02               0
GRID*               1879               06.7476044740E+00-3.274103407E+00+
*       2.1535065740E+02               0
GRID*               1880               06.2097070325E+004.2057425004E+00+
*       2.0914792505E+02               0
GRID*               1881               04.9085271458E+005.6705456790E+00+
*       2.0914792507E+02               0
GRID*               1882               04.9083598119E+005.6706882031E+00+
*       2.0591219205E+02               0
GRID*               1883               03.2738080502E+006.7477475521E+00+
*       2.0914791621E+02               0
GRID*               1884               01.4170169107E+007.3648349998E+00+
*       2.0914792502E+02               0
GRID*               1885               01.4168006812E+007.3648748028E+00+
*       2.0591219201E+02               0
GRID*               1886               0-5.388284726E-017.4805341352E+00+
*       2.0914792505E+02               0
GRID*               1887               0-2.456446178E+007.0863099273E+00+
*       2.0914791621E+02               0
GRID*               1888               0-2.456594807E+007.0862582048E+00+
*       2.0591218225E+02               0
GRID*               1889               0-4.205742500E+006.2097070325E+00+
*       2.0914792505E+02               0
GRID*               1890               0-5.670545679E+004.9085271458E+00+
*       2.0914792507E+02               0
GRID*               1891               0-5.670688203E+004.9083598119E+00+
*       2.0591219205E+02               0
GRID*               1892               0-6.747747552E+003.2738080502E+00+
*       2.0914791621E+02               0
GRID*               1893               0-7.364835000E+001.4170169107E+00+
*       2.0914792502E+02               0
GRID*               1894               0-7.364874803E+001.4168006812E+00+
*       2.0591219201E+02               0
GRID*               1895               0-7.480534135E+00-5.388284726E-01+
*       2.0914792505E+02               0
GRID*               1896               0-7.086309927E+00-2.456446178E+00+
*       2.0914791621E+02               0
GRID*               1897               0-7.086258205E+00-2.456594807E+00+
*       2.0591218225E+02               0
GRID*               1898               0-6.209707033E+00-4.205742500E+00+
*       2.0914792505E+02               0
GRID*               1899               0-4.908527146E+00-5.670545679E+00+
*       2.0914792507E+02               0
GRID*               1900               0-4.908359812E+00-5.670688203E+00+
*       2.0591219205E+02               0
GRID*               1901               0-3.273808050E+00-6.747747552E+00+
*       2.0914791621E+02               0
GRID*               1902               0-1.417016911E+00-7.364835000E+00+
*       2.0914792502E+02               0
GRID*               1903               0-1.416800681E+00-7.364874803E+00+
*       2.0591219201E+02               0
GRID*               1904               05.3882847258E-01-7.480534135E+00+
*       2.0914792505E+02               0
GRID*               1905               02.4564461776E+00-7.086309927E+00+
*       2.0914791621E+02               0
GRID*               1906               02.4565948069E+00-7.086258205E+00+
*       2.0591218225E+02               0
GRID*               1907               04.2057425004E+00-6.209707033E+00+
*       2.0914792505E+02               0
GRID*               1908               05.6705456790E+00-4.908527146E+00+
*       2.0914792507E+02               0
GRID*               1909               05.6706882031E+00-4.908359812E+00+
*       2.0591219205E+02               0
GRID*               1910               06.7477475521E+00-3.273808050E+00+
*       2.0914791621E+02               0
GRID*               1911               06.2094542643E+004.2061103421E+00+
*       2.0241138373E+02               0
GRID*               1912               04.9081879201E+005.6708353742E+00+
*       2.0241138375E+02               0
GRID*               1913               04.9080287105E+005.6709728062E+00+
*       1.9891057512E+02               0
GRID*               1914               03.2735065379E+006.7478934364E+00+
*       2.0241137324E+02               0
GRID*               1915               01.4165780734E+007.3649163691E+00+
*       2.0241138371E+02               0
GRID*               1916               01.4163711817E+007.3649558612E+00+
*       1.9891057509E+02               0
GRID*               1917               0-5.392731863E-017.4804991119E+00+
*       2.0241138374E+02               0
GRID*               1918               0-2.456762536E+007.0861998842E+00+
*       2.0241137324E+02               0
GRID*               1919               0-2.456939884E+007.0861382854E+00+
*       1.9891056433E+02               0
GRID*               1920               0-4.206110342E+006.2094542643E+00+
*       2.0241138373E+02               0
GRID*               1921               0-5.670835374E+004.9081879201E+00+
*       2.0241138375E+02               0
GRID*               1922               0-5.670972806E+004.9080287105E+00+
*       1.9891057512E+02               0
GRID*               1923               0-6.747893436E+003.2735065379E+00+
*       2.0241137324E+02               0
GRID*               1924               0-7.364916369E+001.4165780734E+00+
*       2.0241138371E+02               0
GRID*               1925               0-7.364955861E+001.4163711817E+00+
*       1.9891057509E+02               0
GRID*               1926               0-7.480499112E+00-5.392731863E-01+
*       2.0241138374E+02               0
GRID*               1927               0-7.086199884E+00-2.456762536E+00+
*       2.0241137324E+02               0
GRID*               1928               0-7.086138285E+00-2.456939884E+00+
*       1.9891056433E+02               0
GRID*               1929               0-6.209454264E+00-4.206110342E+00+
*       2.0241138373E+02               0
GRID*               1930               0-4.908187920E+00-5.670835374E+00+
*       2.0241138375E+02               0
GRID*               1931               0-4.908028710E+00-5.670972806E+00+
*       1.9891057512E+02               0
GRID*               1932               0-3.273506538E+00-6.747893436E+00+
*       2.0241137324E+02               0
GRID*               1933               0-1.416578073E+00-7.364916369E+00+
*       2.0241138371E+02               0
GRID*               1934               0-1.416371182E+00-7.364955861E+00+
*       1.9891057509E+02               0
GRID*               1935               05.3927318635E-01-7.480499112E+00+
*       2.0241138374E+02               0
GRID*               1936               02.4567625356E+00-7.086199884E+00+
*       2.0241137324E+02               0
GRID*               1937               02.4569398835E+00-7.086138285E+00+
*       1.9891056433E+02               0
GRID*               1938               04.2061103421E+00-6.209454264E+00+
*       2.0241138373E+02               0
GRID*               1939               05.6708353742E+00-4.908187920E+00+
*       2.0241138375E+02               0
GRID*               1940               05.6709728062E+00-4.908028710E+00+
*       1.9891057512E+02               0
GRID*               1941               06.7478934364E+00-3.273506538E+00+
*       2.0241137324E+02               0
GRID*               1942               06.2092239749E+004.2064516583E+00+
*       1.9518338787E+02               0
GRID*               1943               04.9078777414E+005.6711048932E+00+
*       1.9518338787E+02               0
GRID*               1944               04.9077522561E+005.6712174163E+00+
*       1.9145619996E+02               0
GRID*               1945               03.2731497928E+006.7480663031E+00+
*       1.9518337736E+02               0
GRID*               1946               01.4161738872E+007.3649948768E+00+
*       1.9518338786E+02               0
GRID*               1947               01.4160081859E+007.3650297278E+00+
*       1.9145619997E+02               0
GRID*               1948               0-5.396830940E-017.4804703612E+00+
*       1.9518338787E+02               0
GRID*               1949               0-2.457137028E+007.0860698637E+00+
*       1.9518337736E+02               0
GRID*               1950               0-2.457340853E+007.0859991628E+00+
*       1.9145619045E+02               0
GRID*               1951               0-4.206451658E+006.2092239749E+00+
*       1.9518338787E+02               0
GRID*               1952               0-5.671104893E+004.9078777414E+00+
*       1.9518338787E+02               0
GRID*               1953               0-5.671217416E+004.9077522561E+00+
*       1.9145619996E+02               0
GRID*               1954               0-6.748066303E+003.2731497928E+00+
*       1.9518337736E+02               0
GRID*               1955               0-7.364994877E+001.4161738872E+00+
*       1.9518338786E+02               0
GRID*               1956               0-7.365029728E+001.4160081859E+00+
*       1.9145619997E+02               0
GRID*               1957               0-7.480470361E+00-5.396830940E-01+
*       1.9518338787E+02               0
GRID*               1958               0-7.086069864E+00-2.457137028E+00+
*       1.9518337736E+02               0
GRID*               1959               0-7.085999163E+00-2.457340853E+00+
*       1.9145619045E+02               0
GRID*               1960               0-6.209223975E+00-4.206451658E+00+
*       1.9518338787E+02               0
GRID*               1961               0-4.907877741E+00-5.671104893E+00+
*       1.9518338787E+02               0
GRID*               1962               0-4.907752256E+00-5.671217416E+00+
*       1.9145619996E+02               0
GRID*               1963               0-3.273149793E+00-6.748066303E+00+
*       1.9518337736E+02               0
GRID*               1964               0-1.416173887E+00-7.364994877E+00+
*       1.9518338786E+02               0
GRID*               1965               0-1.416008186E+00-7.365029728E+00+
*       1.9145619997E+02               0
GRID*               1966               05.3968309400E-01-7.480470361E+00+
*       1.9518338787E+02               0
GRID*               1967               02.4571370279E+00-7.086069864E+00+
*       1.9518337736E+02               0
GRID*               1968               02.4573408527E+00-7.085999163E+00+
*       1.9145619045E+02               0
GRID*               1969               04.2064516583E+00-6.209223975E+00+
*       1.9518338787E+02               0
GRID*               1970               05.6711048932E+00-4.907877741E+00+
*       1.9518338787E+02               0
GRID*               1971               05.6712174163E+00-4.907752256E+00+
*       1.9145619996E+02               0
GRID*               1972               06.7480663031E+00-3.273149793E+00+
*       1.9518337736E+02               0
GRID*               1973               06.2090631746E+004.2067045143E+00+
*       1.8758092373E+02               0
GRID*               1974               04.9076584717E+005.6713062487E+00+
*       1.8758092369E+02               0
GRID*               1975               04.9076167554E+005.6713551161E+00+
*       1.8370564607E+02               0
GRID*               1976               03.2727487648E+006.7482608010E+00+
*       1.8758091624E+02               0
GRID*               1977               01.4158813879E+007.3650599699E+00+
*       1.8758092373E+02               0
GRID*               1978               01.4158191525E+007.3650817075E+00+
*       1.8370564614E+02               0
GRID*               1979               0-5.399805207E-017.4804576942E+00+
*       1.8758092369E+02               0
GRID*               1980               0-2.457558128E+007.0859238248E+00+
*       1.8758091624E+02               0
GRID*               1981               0-2.457779348E+007.0858471377E+00+
*       1.8370564207E+02               0
GRID*               1982               0-4.206704514E+006.2090631746E+00+
*       1.8758092373E+02               0
GRID*               1983               0-5.671306249E+004.9076584717E+00+
*       1.8758092369E+02               0
GRID*               1984               0-5.671355116E+004.9076167554E+00+
*       1.8370564607E+02               0
GRID*               1985               0-6.748260801E+003.2727487648E+00+
*       1.8758091624E+02               0
GRID*               1986               0-7.365059970E+001.4158813879E+00+
*       1.8758092373E+02               0
GRID*               1987               0-7.365081707E+001.4158191525E+00+
*       1.8370564614E+02               0
GRID*               1988               0-7.480457694E+00-5.399805207E-01+
*       1.8758092369E+02               0
GRID*               1989               0-7.085923825E+00-2.457558128E+00+
*       1.8758091624E+02               0
GRID*               1990               0-7.085847138E+00-2.457779348E+00+
*       1.8370564207E+02               0
GRID*               1991               0-6.209063175E+00-4.206704514E+00+
*       1.8758092373E+02               0
GRID*               1992               0-4.907658472E+00-5.671306249E+00+
*       1.8758092369E+02               0
GRID*               1993               0-4.907616755E+00-5.671355116E+00+
*       1.8370564607E+02               0
GRID*               1994               0-3.272748765E+00-6.748260801E+00+
*       1.8758091624E+02               0
GRID*               1995               0-1.415881388E+00-7.365059970E+00+
*       1.8758092373E+02               0
GRID*               1996               0-1.415819152E+00-7.365081707E+00+
*       1.8370564614E+02               0
GRID*               1997               05.3998052066E-01-7.480457694E+00+
*       1.8758092369E+02               0
GRID*               1998               02.4575581282E+00-7.085923825E+00+
*       1.8758091624E+02               0
GRID*               1999               02.4577793485E+00-7.085847138E+00+
*       1.8370564207E+02               0
GRID*               2000               04.2067045143E+00-6.209063175E+00+
*       1.8758092373E+02               0
GRID*               2001               05.6713062487E+00-4.907658472E+00+
*       1.8758092369E+02               0
GRID*               2002               05.6713551161E+00-4.907616755E+00+
*       1.8370564607E+02               0
GRID*               2003               06.7482608010E+00-3.272748765E+00+
*       1.8758091624E+02               0
GRID*               2004               06.2089836064E+004.2068642411E+00+
*       1.7986690573E+02               0
GRID*               2005               04.9075421199E+005.6714383492E+00+
*       1.7986690564E+02               0
GRID*               2006               04.9073948306E+005.6715773151E+00+
*       1.7602816710E+02               0
GRID*               2007               03.2722142908E+006.7485200870E+00+
*       1.7986690669E+02               0
GRID*               2008               01.4157121803E+007.3651166501E+00+
*       1.7986690573E+02               0
GRID*               2009               01.4155170134E+007.3651631841E+00+
*       1.7602816715E+02               0
GRID*               2010               0-5.401562037E-017.4804688307E+00+
*       1.7986690564E+02               0
GRID*               2011               0-2.458119401E+007.0857292368E+00+
*       1.7986690669E+02               0
GRID*               2012               0-2.458460883E+007.0856108325E+00+
*       1.7602817133E+02               0
GRID*               2013               0-4.206864241E+006.2089836064E+00+
*       1.7986690573E+02               0
GRID*               2014               0-5.671438349E+004.9075421199E+00+
*       1.7986690564E+02               0
GRID*               2015               0-5.671577315E+004.9073948306E+00+
*       1.7602816710E+02               0
GRID*               2016               0-6.748520087E+003.2722142908E+00+
*       1.7986690669E+02               0
GRID*               2017               0-7.365116650E+001.4157121803E+00+
*       1.7986690573E+02               0
GRID*               2018               0-7.365163184E+001.4155170134E+00+
*       1.7602816715E+02               0
GRID*               2019               0-7.480468831E+00-5.401562037E-01+
*       1.7986690564E+02               0
GRID*               2020               0-7.085729237E+00-2.458119401E+00+
*       1.7986690669E+02               0
GRID*               2021               0-7.085610833E+00-2.458460883E+00+
*       1.7602817133E+02               0
GRID*               2022               0-6.208983606E+00-4.206864241E+00+
*       1.7986690573E+02               0
GRID*               2023               0-4.907542120E+00-5.671438349E+00+
*       1.7986690564E+02               0
GRID*               2024               0-4.907394831E+00-5.671577315E+00+
*       1.7602816710E+02               0
GRID*               2025               0-3.272214291E+00-6.748520087E+00+
*       1.7986690669E+02               0
GRID*               2026               0-1.415712180E+00-7.365116650E+00+
*       1.7986690573E+02               0
GRID*               2027               0-1.415517013E+00-7.365163184E+00+
*       1.7602816715E+02               0
GRID*               2028               05.4015620367E-01-7.480468831E+00+
*       1.7986690564E+02               0
GRID*               2029               02.4581194011E+00-7.085729237E+00+
*       1.7986690669E+02               0
GRID*               2030               02.4584608828E+00-7.085610833E+00+
*       1.7602817133E+02               0
GRID*               2031               04.2068642411E+00-6.208983606E+00+
*       1.7986690573E+02               0
GRID*               2032               05.6714383492E+00-4.907542120E+00+
*       1.7986690564E+02               0
GRID*               2033               05.6715773151E+00-4.907394831E+00+
*       1.7602816710E+02               0
GRID*               2034               06.7485200870E+00-3.272214291E+00+
*       1.7986690669E+02               0
GRID*               2035               06.2086941293E+004.2073110193E+00+
*       1.7260838525E+02               0
GRID*               2036               04.9071444222E+005.6717966746E+00+
*       1.7260838522E+02               0
GRID*               2037               04.9068439857E+005.6720544020E+00+
*       1.6918860465E+02               0
GRID*               2038               03.2715490052E+006.7488427705E+00+
*       1.7260839031E+02               0
GRID*               2039               01.4151915687E+007.3652278785E+00+
*       1.7260838525E+02               0
GRID*               2040               01.4148031873E+007.3653008383E+00+
*       1.6918860467E+02               0
GRID*               2041               0-5.406907931E-017.4804409904E+00+
*       1.7260838524E+02               0
GRID*               2042               0-2.458818001E+007.0854869797E+00+
*       1.7260839031E+02               0
GRID*               2043               0-2.459174764E+007.0853632283E+00+
*       1.6918860929E+02               0
GRID*               2044               0-4.207311019E+006.2086941293E+00+
*       1.7260838525E+02               0
GRID*               2045               0-5.671796675E+004.9071444222E+00+
*       1.7260838522E+02               0
GRID*               2046               0-5.672054402E+004.9068439857E+00+
*       1.6918860465E+02               0
GRID*               2047               0-6.748842770E+003.2715490052E+00+
*       1.7260839031E+02               0
GRID*               2048               0-7.365227879E+001.4151915687E+00+
*       1.7260838525E+02               0
GRID*               2049               0-7.365300838E+001.4148031873E+00+
*       1.6918860467E+02               0
GRID*               2050               0-7.480440990E+00-5.406907931E-01+
*       1.7260838524E+02               0
GRID*               2051               0-7.085486980E+00-2.458818001E+00+
*       1.7260839031E+02               0
GRID*               2052               0-7.085363228E+00-2.459174764E+00+
*       1.6918860929E+02               0
GRID*               2053               0-6.208694129E+00-4.207311019E+00+
*       1.7260838525E+02               0
GRID*               2054               0-4.907144422E+00-5.671796675E+00+
*       1.7260838522E+02               0
GRID*               2055               0-4.906843986E+00-5.672054402E+00+
*       1.6918860465E+02               0
GRID*               2056               0-3.271549005E+00-6.748842770E+00+
*       1.7260839031E+02               0
GRID*               2057               0-1.415191569E+00-7.365227879E+00+
*       1.7260838525E+02               0
GRID*               2058               0-1.414803187E+00-7.365300838E+00+
*       1.6918860467E+02               0
GRID*               2059               05.4069079311E-01-7.480440990E+00+
*       1.7260838524E+02               0
GRID*               2060               02.4588180005E+00-7.085486980E+00+
*       1.7260839031E+02               0
GRID*               2061               02.4591747641E+00-7.085363228E+00+
*       1.6918860929E+02               0
GRID*               2062               04.2073110193E+00-6.208694129E+00+
*       1.7260838525E+02               0
GRID*               2063               05.6717966746E+00-4.907144422E+00+
*       1.7260838522E+02               0
GRID*               2064               05.6720544020E+00-4.906843986E+00+
*       1.6918860465E+02               0
GRID*               2065               06.7488427705E+00-3.271549005E+00+
*       1.7260839031E+02               0
GRID*               2066               06.2082726444E+004.2079246777E+00+
*       1.6641411680E+02               0
GRID*               2067               04.9065776373E+005.6722808259E+00+
*       1.6641411680E+02               0
GRID*               2068               04.9063023294E+005.6725141103E+00+
*       1.6363962918E+02               0
GRID*               2069               03.2709342111E+006.7491408788E+00+
*       1.6641412048E+02               0
GRID*               2070               01.4144596119E+007.3653637659E+00+
*       1.6641411682E+02               0
GRID*               2071               01.4141046904E+007.3654281748E+00+
*       1.6363962920E+02               0
GRID*               2072               0-5.414339170E-017.4803825597E+00+
*       1.6641411683E+02               0
GRID*               2073               0-2.459463520E+007.0852630484E+00+
*       1.6641412048E+02               0
GRID*               2074               0-2.459751321E+007.0851631808E+00+
*       1.6363963167E+02               0
GRID*               2075               0-4.207924678E+006.2082726444E+00+
*       1.6641411680E+02               0
GRID*               2076               0-5.672280826E+004.9065776373E+00+
*       1.6641411680E+02               0
GRID*               2077               0-5.672514110E+004.9063023294E+00+
*       1.6363962918E+02               0
GRID*               2078               0-6.749140879E+003.2709342111E+00+
*       1.6641412048E+02               0
GRID*               2079               0-7.365363766E+001.4144596119E+00+
*       1.6641411682E+02               0
GRID*               2080               0-7.365428175E+001.4141046904E+00+
*       1.6363962920E+02               0
GRID*               2081               0-7.480382560E+00-5.414339170E-01+
*       1.6641411683E+02               0
GRID*               2082               0-7.085263048E+00-2.459463520E+00+
*       1.6641412048E+02               0
GRID*               2083               0-7.085163181E+00-2.459751321E+00+
*       1.6363963167E+02               0
GRID*               2084               0-6.208272644E+00-4.207924678E+00+
*       1.6641411680E+02               0
GRID*               2085               0-4.906577637E+00-5.672280826E+00+
*       1.6641411680E+02               0
GRID*               2086               0-4.906302329E+00-5.672514110E+00+
*       1.6363962918E+02               0
GRID*               2087               0-3.270934211E+00-6.749140879E+00+
*       1.6641412048E+02               0
GRID*               2088               0-1.414459612E+00-7.365363766E+00+
*       1.6641411682E+02               0
GRID*               2089               0-1.414104690E+00-7.365428175E+00+
*       1.6363962920E+02               0
GRID*               2090               05.4143391702E-01-7.480382560E+00+
*       1.6641411683E+02               0
GRID*               2091               02.4594635198E+00-7.085263048E+00+
*       1.6641412048E+02               0
GRID*               2092               02.4597513206E+00-7.085163181E+00+
*       1.6363963167E+02               0
GRID*               2093               04.2079246777E+00-6.208272644E+00+
*       1.6641411680E+02               0
GRID*               2094               05.6722808259E+00-4.906577637E+00+
*       1.6641411680E+02               0
GRID*               2095               05.6725141103E+00-4.906302329E+00+
*       1.6363962918E+02               0
GRID*               2096               06.7491408788E+00-3.270934211E+00+
*       1.6641412048E+02               0
GRID*               2097               06.2078986817E+004.2084644820E+00+
*       1.6135988962E+02               0
GRID*               2098               04.9060765119E+005.6727054791E+00+
*       1.6135988962E+02               0
GRID*               2099               04.9058568775E+005.6728920929E+00+
*       1.5908014990E+02               0
GRID*               2100               03.2704357169E+006.7493825219E+00+
*       1.6135989112E+02               0
GRID*               2101               01.4138134812E+007.3654810337E+00+
*       1.6135988964E+02               0
GRID*               2102               01.4135299632E+007.3655328722E+00+
*       1.5908014991E+02               0
GRID*               2103               0-5.420885411E-017.4803284855E+00+
*       1.6135988965E+02               0
GRID*               2104               0-2.459986876E+007.0850814268E+00+
*       1.6135989112E+02               0
GRID*               2105               0-2.460221425E+007.0850000064E+00+
*       1.5908015058E+02               0
GRID*               2106               0-4.208464482E+006.2078986817E+00+
*       1.6135988962E+02               0
GRID*               2107               0-5.672705479E+004.9060765119E+00+
*       1.6135988962E+02               0
GRID*               2108               0-5.672892093E+004.9058568775E+00+
*       1.5908014990E+02               0
GRID*               2109               0-6.749382522E+003.2704357169E+00+
*       1.6135989112E+02               0
GRID*               2110               0-7.365481034E+001.4138134812E+00+
*       1.6135988964E+02               0
GRID*               2111               0-7.365532872E+001.4135299632E+00+
*       1.5908014991E+02               0
GRID*               2112               0-7.480328485E+00-5.420885411E-01+
*       1.6135988965E+02               0
GRID*               2113               0-7.085081427E+00-2.459986876E+00+
*       1.6135989112E+02               0
GRID*               2114               0-7.085000006E+00-2.460221425E+00+
*       1.5908015058E+02               0
GRID*               2115               0-6.207898682E+00-4.208464482E+00+
*       1.6135988962E+02               0
GRID*               2116               0-4.906076512E+00-5.672705479E+00+
*       1.6135988962E+02               0
GRID*               2117               0-4.905856878E+00-5.672892093E+00+
*       1.5908014990E+02               0
GRID*               2118               0-3.270435717E+00-6.749382522E+00+
*       1.6135989112E+02               0
GRID*               2119               0-1.413813481E+00-7.365481034E+00+
*       1.6135988964E+02               0
GRID*               2120               0-1.413529963E+00-7.365532872E+00+
*       1.5908014991E+02               0
GRID*               2121               05.4208854106E-01-7.480328485E+00+
*       1.6135988965E+02               0
GRID*               2122               02.4599868757E+00-7.085081427E+00+
*       1.6135989112E+02               0
GRID*               2123               02.4602214255E+00-7.085000006E+00+
*       1.5908015058E+02               0
GRID*               2124               04.2084644820E+00-6.207898682E+00+
*       1.6135988962E+02               0
GRID*               2125               05.6727054791E+00-4.906076512E+00+
*       1.6135988962E+02               0
GRID*               2126               05.6728920929E+00-4.905856878E+00+
*       1.5908014990E+02               0
GRID*               2127               06.7493825219E+00-3.270435717E+00+
*       1.6135989112E+02               0
GRID*               2128               07.0870626907E+002.4542731865E+00+
*       2.4800926431E+02               0
GRID*               2129               07.0870237488E+002.4543856719E+00+
*       2.4601852863E+02               0
GRID*               2130               06.2112527681E+004.2035057180E+00+
*       2.4800926432E+02               0
GRID*               2131               07.0869837709E+002.4545011647E+00+
*       2.4399547192E+02               0
GRID*               2132               07.0869434533E+002.4546176503E+00+
*       2.4197241522E+02               0
GRID*               2133               07.0869015456E+002.4547387383E+00+
*       2.3988375735E+02               0
GRID*               2134               07.0868594282E+002.4548604362E+00+
*       2.3779509947E+02               0
GRID*               2135               07.0868151450E+002.4549883928E+00+
*       2.3560580753E+02               0
GRID*               2136               07.0867708168E+002.4551164745E+00+
*       2.3341651557E+02               0
GRID*               2137               07.0867237616E+002.4552524250E+00+
*       2.3108942980E+02               0
GRID*               2138               07.0866768945E+002.4553878148E+00+
*       2.2876234401E+02               0
GRID*               2139               07.0866268321E+002.4555324085E+00+
*       2.2625866340E+02               0
GRID*               2140               07.0865773139E+002.4556753933E+00+
*       2.2375498277E+02               0
GRID*               2141               07.0865243763E+002.4558281979E+00+
*       2.2103632373E+02               0
GRID*               2142               07.0864725551E+002.4559777106E+00+
*       2.1831766466E+02               0
GRID*               2143               07.0864176029E+002.4561361571E+00+
*       2.1535065740E+02               0
GRID*               2144               07.0863647157E+002.4562885209E+00+
*       2.1238365008E+02               0
GRID*               2145               07.0863099273E+002.4564461776E+00+
*       2.0914791621E+02               0
GRID*               2146               07.0862582048E+002.4565948069E+00+
*       2.0591218225E+02               0
GRID*               2147               07.0861998842E+002.4567625356E+00+
*       2.0241137324E+02               0
GRID*               2148               07.0861382854E+002.4569398835E+00+
*       1.9891056433E+02               0
GRID*               2149               07.0860698637E+002.4571370279E+00+
*       1.9518337736E+02               0
GRID*               2150               07.0859991628E+002.4573408527E+00+
*       1.9145619045E+02               0
GRID*               2151               07.0859238248E+002.4575581282E+00+
*       1.8758091624E+02               0
GRID*               2152               07.0858471377E+002.4577793485E+00+
*       1.8370564207E+02               0
GRID*               2153               07.0857292368E+002.4581194011E+00+
*       1.7986690669E+02               0
GRID*               2154               07.0856108325E+002.4584608828E+00+
*       1.7602817133E+02               0
GRID*               2155               07.0854869797E+002.4588180005E+00+
*       1.7260839031E+02               0
GRID*               2156               07.0853632283E+002.4591747641E+00+
*       1.6918860929E+02               0
GRID*               2157               07.0852630484E+002.4594635198E+00+
*       1.6641412048E+02               0
GRID*               2158               07.0851631808E+002.4597513206E+00+
*       1.6363963167E+02               0
GRID*               2159               07.0850814268E+002.4599868757E+00+
*       1.6135989112E+02               0
GRID*               2160               07.0850000064E+002.4602214255E+00+
*       1.5908015058E+02               0
GRID*               2161               07.0849274712E+002.4604303390E+00+
*       1.5704007529E+02               0
GRID*               2162               06.2075955982E+004.2089042442E+00+
*       1.5704007511E+02               0
GRID*               2163               04.9056699082E+005.6730517318E+00+
*       1.5704007511E+02               0
GRID*               2164               03.2700132780E+006.7495872350E+00+
*       1.5704007529E+02               0
GRID*               2165               01.4132882100E+007.3655776802E+00+
*       1.5704007512E+02               0
GRID*               2166               0-5.426208908E-017.4802858109E+00+
*       1.5704007513E+02               0
GRID*               2167               0-2.460430339E+007.0849274712E+00+
*       1.5704007529E+02               0
GRID*               2168               0-4.208904244E+006.2075955982E+00+
*       1.5704007511E+02               0
GRID*               2169               0-5.673051732E+004.9056699082E+00+
*       1.5704007511E+02               0
GRID*               2170               0-6.749587235E+003.2700132780E+00+
*       1.5704007529E+02               0
GRID*               2171               0-7.365577680E+001.4132882100E+00+
*       1.5704007512E+02               0
GRID*               2172               0-7.480285811E+00-5.426208908E-01+
*       1.5704007513E+02               0
GRID*               2173               0-7.084927471E+00-2.460430339E+00+
*       1.5704007529E+02               0
GRID*               2174               0-6.207595598E+00-4.208904244E+00+
*       1.5704007511E+02               0
GRID*               2175               0-4.905669908E+00-5.673051732E+00+
*       1.5704007511E+02               0
GRID*               2176               0-3.270013278E+00-6.749587235E+00+
*       1.5704007529E+02               0
GRID*               2177               0-1.413288210E+00-7.365577680E+00+
*       1.5704007512E+02               0
GRID*               2178               05.4262089078E-01-7.480285811E+00+
*       1.5704007513E+02               0
GRID*               2179               02.4604303390E+00-7.084927471E+00+
*       1.5704007529E+02               0
GRID*               2180               04.2089042442E+00-6.207595598E+00+
*       1.5704007511E+02               0
GRID*               2181               05.6730517318E+00-4.905669908E+00+
*       1.5704007511E+02               0
GRID*               2182               06.7495872350E+00-3.270013278E+00+
*       1.5704007529E+02               0
GRID*               2183               07.3655776802E+00-1.413288210E+00+
*       1.5704007512E+02               0
GRID*               2184               07.3655328722E+00-1.413529963E+00+
*       1.5908014991E+02               0
GRID*               2185               07.3654810337E+00-1.413813481E+00+
*       1.6135988964E+02               0
GRID*               2186               07.3654281748E+00-1.414104690E+00+
*       1.6363962920E+02               0
GRID*               2187               07.3653637659E+00-1.414459612E+00+
*       1.6641411682E+02               0
GRID*               2188               07.3653008383E+00-1.414803187E+00+
*       1.6918860467E+02               0
GRID*               2189               07.3652278785E+00-1.415191569E+00+
*       1.7260838525E+02               0
GRID*               2190               07.3651631841E+00-1.415517013E+00+
*       1.7602816715E+02               0
GRID*               2191               07.3651166501E+00-1.415712180E+00+
*       1.7986690573E+02               0
GRID*               2192               07.3650817075E+00-1.415819152E+00+
*       1.8370564614E+02               0
GRID*               2193               07.3650599699E+00-1.415881388E+00+
*       1.8758092373E+02               0
GRID*               2194               07.3650297278E+00-1.416008186E+00+
*       1.9145619997E+02               0
GRID*               2195               07.3649948768E+00-1.416173887E+00+
*       1.9518338786E+02               0
GRID*               2196               07.3649558612E+00-1.416371182E+00+
*       1.9891057509E+02               0
GRID*               2197               07.3649163691E+00-1.416578073E+00+
*       2.0241138371E+02               0
GRID*               2198               07.3648748028E+00-1.416800681E+00+
*       2.0591219201E+02               0
GRID*               2199               07.3648349998E+00-1.417016911E+00+
*       2.0914792502E+02               0
GRID*               2200               07.3647942228E+00-1.417240503E+00+
*       2.1238365788E+02               0
GRID*               2201               07.3647562284E+00-1.417450083E+00+
*       2.1535066427E+02               0
GRID*               2202               07.3647178610E+00-1.417662466E+00+
*       2.1831767059E+02               0
GRID*               2203               07.3646825293E+00-1.417858379E+00+
*       2.2103632883E+02               0
GRID*               2204               07.3646471579E+00-1.418054569E+00+
*       2.2375498705E+02               0
GRID*               2205               07.3646146473E+00-1.418234737E+00+
*       2.2625866698E+02               0
GRID*               2206               07.3645822842E+00-1.418413762E+00+
*       2.2876234693E+02               0
GRID*               2207               07.3645524056E+00-1.418578607E+00+
*       2.3108943214E+02               0
GRID*               2208               07.3645227833E+00-1.418741484E+00+
*       2.3341651739E+02               0
GRID*               2209               07.3644952012E+00-1.418892526E+00+
*       2.3560580890E+02               0
GRID*               2210               07.3644679439E+00-1.419041084E+00+
*       2.3779510045E+02               0
GRID*               2211               07.3644422835E+00-1.419180183E+00+
*       2.3988375801E+02               0
GRID*               2212               07.3644169978E+00-1.419316420E+00+
*       2.4197241562E+02               0
GRID*               2213               07.3643928982E+00-1.419445386E+00+
*       2.4399547213E+02               0
GRID*               2214               07.3643692176E+00-1.419571154E+00+
*       2.4601852870E+02               0
GRID*               2215               06.7467432988E+00-3.275876870E+00+
*       2.4800926431E+02               0
GRID*               2216               07.3643463555E+00-1.419691554E+00+
*       2.4800926431E+02               0
GRID*               2217               04.2035057180E+00-6.211252768E+00+
*       2.4800926432E+02               0
GRID*               2218               05.6687846225E+00-4.910600506E+00+
*       2.4800926433E+02               0
GRID*               2219               05.3611712960E-01-7.480754968E+00+
*       2.4800926431E+02               0
GRID*               2220               02.4542731865E+00-7.087062691E+00+
*       2.4800926431E+02               0
GRID*               2221               0-3.275876870E+00-6.746743299E+00+
*       2.4800926431E+02               0
GRID*               2222               0-1.419691554E+00-7.364346355E+00+
*       2.4800926431E+02               0
GRID*               2223               0-6.211252768E+00-4.203505718E+00+
*       2.4800926432E+02               0
GRID*               2224               0-4.910600506E+00-5.668784622E+00+
*       2.4800926433E+02               0
GRID*               2225               0-7.480754968E+00-5.361171296E-01+
*       2.4800926431E+02               0
GRID*               2226               0-7.087062691E+00-2.454273187E+00+
*       2.4800926431E+02               0
GRID*               2227               0-6.746743299E+003.2758768704E+00+
*       2.4800926431E+02               0
GRID*               2228               0-7.364346355E+001.4196915542E+00+
*       2.4800926431E+02               0
GRID*               2229               0-4.203505718E+006.2112527681E+00+
*       2.4800926432E+02               0
GRID*               2230               0-5.668784622E+004.9106005061E+00+
*       2.4800926433E+02               0
GRID*               2231               0-5.361171296E-017.4807549681E+00+
*       2.4800926431E+02               0
GRID*               2232               0-2.454273187E+007.0870626907E+00+
*       2.4800926431E+02               0
GRID*               2233               03.2758768704E+006.7467432988E+00+
*       2.4800926431E+02               0
GRID*               2234               01.4196915542E+007.3643463555E+00+
*       2.4800926431E+02               0
GRID*               2235               04.9106005061E+005.6687846225E+00+
*       2.4800926433E+02               0
GRID*               2236               0-5.221424000E+003.3216051469E+00+
*       2.5000000000E+02               0
GRID*               2237               0-3.949783803E+004.7892727852E+00+
*       2.5000000000E+02               0
GRID*               2238               0-5.870592622E+001.5209172978E+00+
*       2.5000000000E+02               0
GRID*               2239               0-6.237628822E+00-3.850755013E-01+
*       2.5000000000E+02               0
GRID*               2240               0-2.218816378E+005.6029132483E+00+
*       2.5000000000E+02               0
GRID*               2241               0-3.851120772E-016.2376364226E+00+
*       2.5000000000E+02               0
GRID*               2242               05.5915822705E+002.2176382818E+00+
*       2.5000000000E+02               0
GRID*               2243               06.2010116577E+003.8111263514E-01+
*       2.5000000000E+02               0
GRID*               2244               04.7886090965E+003.9503880512E+00+
*       2.5000000000E+02               0
GRID*               2245               03.3209414582E+005.2220282479E+00+
*       2.5000000000E+02               0
GRID*               2246               01.5208807219E+005.8706002224E+00+
*       2.5000000000E+02               0
GRID*               2247               0-5.602905648E+00-2.218779802E+00+
*       2.5000000000E+02               0
GRID*               2248               0-4.788250999E+00-3.950722593E+00+
*       2.5000000000E+02               0
GRID*               2249               0-3.320583361E+00-5.222362790E+00+
*       2.5000000000E+02               0
GRID*               2250               0-1.521216126E+00-5.870606647E+00+
*       2.5000000000E+02               0
GRID*               2251               03.8477667327E-01-6.237642847E+00+
*       2.5000000000E+02               0
GRID*               2252               05.2216669488E+00-3.321353813E+00+
*       2.5000000000E+02               0
GRID*               2253               03.9500267521E+00-4.789021451E+00+
*       2.5000000000E+02               0
GRID*               2254               05.8592692446E+00-1.522058818E+00+
*       2.5000000000E+02               0
GRID*               2255               02.2184809738E+00-5.602919673E+00+
*       2.5000000000E+02               0
GRID*               2256               03.3652950516E+003.6979138502E+00+
*       2.9601947256E+02               0
GRID*               2257               0-2.350340117E-014.9944702840E+00+
*       2.9601947238E+02               0
GRID*               2258               0-3.696705521E+003.3666227225E+00+
*       2.9601947255E+02               0
GRID*               2259               0-4.994453863E+00-2.349643736E-01+
*       2.9601947254E+02               0
GRID*               2260               0-3.364580300E+00-3.698582566E+00+
*       2.9601947244E+02               0
GRID*               2261               02.3436668981E-01-4.994482033E+00+
*       2.9601947254E+02               0
GRID*               2262               03.6971881125E+00-3.366125227E+00+
*       2.9601947232E+02               0
GRID*               2263               03.3653444001E+003.6978663721E+00+
*       2.9185044637E+02               0
GRID*               2264               0-2.349512839E-014.9944740670E+00+
*       2.9185044569E+02               0
GRID*               2265               0-3.696657826E+003.3666723007E+00+
*       2.9185044636E+02               0
GRID*               2266               0-4.994455184E+00-2.348958659E-01+
*       2.9185044635E+02               0
GRID*               2267               0-3.364636454E+00-3.698530632E+00+
*       2.9185044592E+02               0
GRID*               2268               02.3429807656E-01-4.994483357E+00+
*       2.9185044634E+02               0
GRID*               2269               03.6971273465E+00-3.366191984E+00+
*       2.9185044554E+02               0
GRID*               2270               03.3653884433E+003.6978220628E+00+
*       2.8729092672E+02               0
GRID*               2271               0-2.348635048E-014.9944780393E+00+
*       2.8729092521E+02               0
GRID*               2272               0-3.696613186E+003.3667167157E+00+
*       2.8729092670E+02               0
GRID*               2273               0-4.994454996E+00-2.348333266E-01+
*       2.8729092670E+02               0
GRID*               2274               0-3.364692463E+00-3.698478335E+00+
*       2.8729092571E+02               0
GRID*               2275               02.3423537173E-01-4.994483179E+00+
*       2.8729092669E+02               0
GRID*               2276               03.6970585091E+00-3.366267523E+00+
*       2.8729092490E+02               0
GRID*               2277               03.3654313436E+003.6977772277E+00+
*       2.8212409193E+02               0
GRID*               2278               0-2.347624396E-014.9944826347E+00+
*       2.8212408921E+02               0
GRID*               2279               0-3.696567938E+003.3667600873E+00+
*       2.8212409189E+02               0
GRID*               2280               0-4.994453628E+00-2.347712067E-01+
*       2.8212409191E+02               0
GRID*               2281               0-3.364753585E+00-3.698421025E+00+
*       2.8212409010E+02               0
GRID*               2282               02.3417304339E-01-4.994481825E+00+
*       2.8212409189E+02               0
GRID*               2283               03.6969812678E+00-3.366352306E+00+
*       2.8212408876E+02               0
GRID*               2284               03.3654816495E+003.6977248510E+00+
*       2.7615297264E+02               0
GRID*               2285               0-2.346338745E-014.9944886541E+00+
*       2.7615296841E+02               0
GRID*               2286               0-3.696515181E+003.3668108117E+00+
*       2.7615297258E+02               0
GRID*               2287               0-4.994452162E+00-2.346985252E-01+
*       2.7615297262E+02               0
GRID*               2288               0-3.364829522E+00-3.698350372E+00+
*       2.7615296977E+02               0
GRID*               2289               02.3410017390E-01-4.994480368E+00+
*       2.7615297260E+02               0
GRID*               2290               03.6968934405E+00-3.366448753E+00+
*       2.7615296795E+02               0
GRID*               2291               03.3655626424E+003.6976468934E+00+
*       2.6930327640E+02               0
GRID*               2292               0-2.344472771E-014.9944979211E+00+
*       2.6930327074E+02               0
GRID*               2293               0-3.696437266E+003.3668916622E+00+
*       2.6930327635E+02               0
GRID*               2294               0-4.994454295E+00-2.345861470E-01+
*       2.6930327639E+02               0
GRID*               2295               0-3.364943377E+00-3.698247029E+00+
*       2.6930327247E+02               0
GRID*               2296               02.3398784032E-01-4.994482477E+00+
*       2.6930327637E+02               0
GRID*               2297               03.6967934190E+00-3.366558610E+00+
*       2.6930327074E+02               0
GRID*               2298               03.3657520064E+003.6974841976E+00+
*       2.6177396773E+02               0
GRID*               2299               0-2.342570718E-014.9945072008E+00+
*       2.6177396398E+02               0
GRID*               2300               0-3.696276402E+003.3670785420E+00+
*       2.6177396776E+02               0
GRID*               2301               0-4.994473101E+00-2.343376031E-01+
*       2.6177396773E+02               0
GRID*               2302               0-3.365159598E+00-3.698057528E+00+
*       2.6177396380E+02               0
GRID*               2303               02.3374031812E-01-4.994501128E+00+
*       2.6177396774E+02               0
GRID*               2304               03.6966836803E+00-3.366679139E+00+
*       2.6177396432E+02               0
GRID*               2305               03.3659588458E+003.6973197439E+00+
*       2.5492671561E+02               0
GRID*               2306               0-2.342215651E-014.9945086143E+00+
*       2.5492671758E+02               0
GRID*               2307               0-3.696111628E+003.3672857663E+00+
*       2.5492671562E+02               0
GRID*               2308               0-4.994503099E+00-2.340749924E-01+
*       2.5492671562E+02               0
GRID*               2309               0-3.365202151E+00-3.698018999E+00+
*       2.5492671711E+02               0
GRID*               2310               02.3347753472E-01-4.994531143E+00+
*       2.5492671562E+02               0
GRID*               2311               03.6966478464E+00-3.366718506E+00+
*       2.5492671771E+02               0
GRID*               2312               03.3653210213E+003.6978891173E+00+
*       2.9393495942E+02               0
GRID*               2313               01.6942086364E+004.7042165120E+00+
*       2.9185044558E+02               0
GRID*               2314               01.6941664454E+004.7042317304E+00+
*       2.9393495897E+02               0
GRID*               2315               0-2.349921677E-014.9944722047E+00+
*       2.9393495903E+02               0
GRID*               2316               01.6941241001E+004.7042469978E+00+
*       2.9601947236E+02               0
GRID*               2317               0-2.127839046E+004.5245903454E+00+
*       2.9185045048E+02               0
GRID*               2318               0-2.127826484E+004.5245932349E+00+
*       2.9393496236E+02               0
GRID*               2319               0-3.696680693E+003.3666487901E+00+
*       2.9393495941E+02               0
GRID*               2320               0-2.127809356E+004.5245980145E+00+
*       2.9601947410E+02               0
GRID*               2321               0-4.703798846E+001.6952947976E+00+
*       2.9185044812E+02               0
GRID*               2322               0-4.703799578E+001.6952896229E+00+
*       2.9393496062E+02               0
GRID*               2323               0-4.994454736E+00-2.349285037E-01+
*       2.9393495940E+02               0
GRID*               2324               0-4.703801144E+001.6952823102E+00+
*       2.9601947317E+02               0
GRID*               2325               0-4.524051033E+00-2.129054028E+00+
*       2.9185044662E+02               0
GRID*               2326               0-4.524027412E+00-2.129106067E+00+
*       2.9393496028E+02               0
GRID*               2327               0-3.364609136E+00-3.698555967E+00+
*       2.9393495917E+02               0
GRID*               2328               0-4.524015404E+00-2.129128373E+00+
*       2.9601947322E+02               0
GRID*               2329               0-1.693477106E+00-4.704439547E+00+
*       2.9185045048E+02               0
GRID*               2330               0-1.693487799E+00-4.704432805E+00+
*       2.9393496236E+02               0
GRID*               2331               02.3433077420E-01-4.994482907E+00+
*       2.9393495940E+02               0
GRID*               2332               0-1.693503247E+00-4.704424094E+00+
*       2.9601947410E+02               0
GRID*               2333               02.1274231492E+00-4.524818552E+00+
*       2.9185044616E+02               0
GRID*               2334               02.1274517363E+00-4.524805164E+00+
*       2.9393495933E+02               0
GRID*               2335               03.6971578793E+00-3.366158446E+00+
*       2.9393495893E+02               0
GRID*               2336               02.1274825646E+00-4.524790712E+00+
*       2.9601947253E+02               0
GRID*               2337               03.3653674667E+003.6978434158E+00+
*       2.8957068651E+02               0
GRID*               2338               01.6943004957E+004.7041833599E+00+
*       2.8729092497E+02               0
GRID*               2339               01.6942546293E+004.7041999159E+00+
*       2.8957068528E+02               0
GRID*               2340               0-2.349072648E-014.9944760612E+00+
*       2.8957068545E+02               0
GRID*               2341               0-2.127759965E+004.5246281471E+00+
*       2.8729093016E+02               0
GRID*               2342               0-2.127825941E+004.5245983002E+00+
*       2.8957069107E+02               0
GRID*               2343               0-3.696634713E+003.3666955420E+00+
*       2.8957068649E+02               0
GRID*               2344               0-4.703784569E+001.6953385704E+00+
*       2.8729092867E+02               0
GRID*               2345               0-4.703795288E+001.6953075175E+00+
*       2.8957068861E+02               0
GRID*               2346               0-4.994455262E+00-2.348632924E-01+
*       2.8957068649E+02               0
GRID*               2347               0-4.524143220E+00-2.128836447E+00+
*       2.8729092297E+02               0
GRID*               2348               0-4.524098990E+00-2.128940465E+00+
*       2.8957068468E+02               0
GRID*               2349               0-3.364664963E+00-3.698504063E+00+
*       2.8957068581E+02               0
GRID*               2350               0-1.693561462E+00-4.704409677E+00+
*       2.8729093010E+02               0
GRID*               2351               0-1.693492598E+00-4.704435662E+00+
*       2.8957069105E+02               0
GRID*               2352               02.3426542493E-01-4.994483440E+00+
*       2.8957068648E+02               0
GRID*               2353               02.1273618891E+00-4.524847233E+00+
*       2.8729092604E+02               0
GRID*               2354               02.1273928923E+00-4.524832716E+00+
*       2.8957068611E+02               0
GRID*               2355               03.6970932703E+00-3.366229390E+00+
*       2.8957068523E+02               0
GRID*               2356               03.3654104131E+003.6977992469E+00+
*       2.8470750931E+02               0
GRID*               2357               01.6944041542E+004.7041459294E+00+
*       2.8212408886E+02               0
GRID*               2358               01.6943523596E+004.7041646339E+00+
*       2.8470750692E+02               0
GRID*               2359               0-2.348135679E-014.9944803012E+00+
*       2.8470750721E+02               0
GRID*               2360               0-2.127334480E+004.5248100568E+00+
*       2.8212408488E+02               0
GRID*               2361               0-2.127586195E+004.5247029647E+00+
*       2.8470750862E+02               0
GRID*               2362               0-3.696590163E+003.3667389222E+00+
*       2.8470750927E+02               0
GRID*               2363               0-4.703707609E+001.6955437896E+00+
*       2.8212409018E+02               0
GRID*               2364               0-4.703757691E+001.6954114746E+00+
*       2.8470751013E+02               0
GRID*               2365               0-4.994454398E+00-2.348016174E-01+
*       2.8470750929E+02               0
GRID*               2366               0-4.524210913E+00-2.128684029E+00+
*       2.8212408564E+02               0
GRID*               2367               0-4.524180973E+00-2.128750237E+00+
*       2.8470750407E+02               0
GRID*               2368               0-3.364722996E+00-3.698449704E+00+
*       2.8470750791E+02               0
GRID*               2369               0-1.693992049E+00-4.704237113E+00+
*       2.8212408479E+02               0
GRID*               2370               0-1.693739307E+00-4.704338902E+00+
*       2.8470750851E+02               0
GRID*               2371               02.3420355782E-01-4.994482588E+00+
*       2.8470750928E+02               0
GRID*               2372               02.1272778214E+00-4.524886679E+00+
*       2.8212409021E+02               0
GRID*               2373               02.1273232926E+00-4.524865326E+00+
*       2.8470750819E+02               0
GRID*               2374               03.6970196651E+00-3.366310153E+00+
*       2.8470750683E+02               0
GRID*               2375               03.3654555796E+003.6977517435E+00+
*       2.7913853231E+02               0
GRID*               2376               01.6945239330E+004.7041026741E+00+
*       2.7615296808E+02               0
GRID*               2377               01.6944640002E+004.7041243162E+00+
*       2.7913852847E+02               0
GRID*               2378               0-2.347005606E-014.9944854994E+00+
*       2.7913852884E+02               0
GRID*               2379               0-2.127026577E+004.5249441665E+00+
*       2.7615295869E+02               0
GRID*               2380               0-2.127141508E+004.5248932697E+00+
*       2.7913852068E+02               0
GRID*               2381               0-3.696542239E+003.3667845656E+00+
*       2.7913853226E+02               0
GRID*               2382               0-4.703569774E+001.6959061349E+00+
*       2.7615296368E+02               0
GRID*               2383               0-4.703626150E+001.6957570741E+00+
*       2.7913852617E+02               0
GRID*               2384               0-4.994452745E+00-2.347360069E-01+
*       2.7913853229E+02               0
GRID*               2385               0-4.524264159E+00-2.128571851E+00+
*       2.7615296497E+02               0
GRID*               2386               0-4.524239542E+00-2.128622804E+00+
*       2.7913852518E+02               0
GRID*               2387               0-3.364790138E+00-3.698386879E+00+
*       2.7913852997E+02               0
GRID*               2388               0-1.694301521E+00-4.704115589E+00+
*       2.7615295870E+02               0
GRID*               2389               0-1.694185412E+00-4.704160357E+00+
*       2.7913852065E+02               0
GRID*               2390               02.3413773575E-01-4.994480949E+00+
*       2.7913853228E+02               0
GRID*               2391               02.1271235946E+00-4.524959334E+00+
*       2.7615296874E+02               0
GRID*               2392               02.1272115987E+00-4.524917841E+00+
*       2.7913852966E+02               0
GRID*               2393               03.6969372373E+00-3.366400655E+00+
*       2.7913852835E+02               0
GRID*               2394               03.3655168803E+003.6976899137E+00+
*       2.7272812469E+02               0
GRID*               2395               01.6946625434E+004.7040526623E+00+
*       2.6930327087E+02               0
GRID*               2396               01.6945929596E+004.7040777583E+00+
*       2.7272811948E+02               0
GRID*               2397               0-2.345481848E-014.9944928279E+00+
*       2.7272811967E+02               0
GRID*               2398               0-2.126926852E+004.5249930442E+00+
*       2.6930326248E+02               0
GRID*               2399               0-2.126956299E+004.5249770595E+00+
*       2.7272811001E+02               0
GRID*               2400               0-3.696480166E+003.3668460999E+00+
*       2.7272812463E+02               0
GRID*               2401               0-4.703508388E+001.6960741208E+00+
*       2.6930326581E+02               0
GRID*               2402               0-4.703530399E+001.6960123592E+00+
*       2.7272811422E+02               0
GRID*               2403               0-4.994452365E+00-2.346488962E-01+
*       2.7272812468E+02               0
GRID*               2404               0-4.524313045E+00-2.128474374E+00+
*       2.6930326866E+02               0
GRID*               2405               0-4.524289442E+00-2.128520964E+00+
*       2.7272811676E+02               0
GRID*               2406               0-3.364880915E+00-3.698303314E+00+
*       2.7272812125E+02               0
GRID*               2407               0-1.694405693E+00-4.704080043E+00+
*       2.6930326251E+02               0
GRID*               2408               0-1.694373795E+00-4.704089458E+00+
*       2.7272811003E+02               0
GRID*               2409               02.3405051346E-01-4.994480566E+00+
*       2.7272812466E+02               0
GRID*               2410               02.1268798803E+00-4.525074358E+00+
*       2.6930326958E+02               0
GRID*               2411               02.1269891099E+00-4.525022836E+00+
*       2.7272811894E+02               0
GRID*               2412               03.6968433764E+00-3.366503739E+00+
*       2.7272811935E+02               0
GRID*               2413               03.3656349821E+003.6975826918E+00+
*       2.6553862280E+02               0
GRID*               2414               01.6948202586E+004.7039959646E+00+
*       2.6177396440E+02               0
GRID*               2415               01.6947402069E+004.7040246975E+00+
*       2.6553861765E+02               0
GRID*               2416               0-2.343414707E-014.9945032091E+00+
*       2.6553861723E+02               0
GRID*               2417               0-2.126921959E+004.5250034009E+00+
*       2.6177396010E+02               0
GRID*               2418               0-2.126919899E+004.5250000892E+00+
*       2.6553861116E+02               0
GRID*               2419               0-3.696373589E+003.3669632695E+00+
*       2.6553862277E+02               0
GRID*               2420               0-4.703488935E+001.6961357981E+00+
*       2.6177396157E+02               0
GRID*               2421               0-4.703495890E+001.6961120570E+00+
*       2.6553861352E+02               0
GRID*               2422               0-4.994460032E+00-2.344897141E-01+
*       2.6553862279E+02               0
GRID*               2423               0-4.524364220E+00-2.128373772E+00+
*       2.6177396336E+02               0
GRID*               2424               0-4.524338387E+00-2.128424705E+00+
*       2.6553861602E+02               0
GRID*               2425               0-3.365034092E+00-3.698166777E+00+
*       2.6553861855E+02               0
GRID*               2426               0-1.694416816E+00-4.704083775E+00+
*       2.6177396013E+02               0
GRID*               2427               0-1.694415668E+00-4.704080083E+00+
*       2.6553861119E+02               0
GRID*               2428               02.3389170528E-01-4.994488165E+00+
*       2.6553862278E+02               0
GRID*               2429               02.1267375365E+00-4.525141235E+00+
*       2.6177396322E+02               0
GRID*               2430               02.1267972158E+00-4.525113249E+00+
*       2.6553861619E+02               0
GRID*               2431               03.6967385545E+00-3.366618871E+00+
*       2.6553861753E+02               0
GRID*               2432               03.3659032841E+003.6973652447E+00+
*       2.5835034009E+02               0
GRID*               2433               01.6948825387E+004.7039739711E+00+
*       2.5492671765E+02               0
GRID*               2434               01.6948528955E+004.7039844873E+00+
*       2.5835034101E+02               0
GRID*               2435               0-2.342379338E-014.9945079914E+00+
*       2.5835034076E+02               0
GRID*               2436               0-2.126988908E+004.5249784217E+00+
*       2.5492671678E+02               0
GRID*               2437               0-2.126962524E+004.5249879751E+00+
*       2.5835033864E+02               0
GRID*               2438               0-3.696158999E+003.3672277843E+00+
*       2.5835034019E+02               0
GRID*               2439               0-4.703505385E+001.6960975842E+00+
*       2.5492671708E+02               0
GRID*               2440               0-4.703498941E+001.6961121311E+00+
*       2.5835033943E+02               0
GRID*               2441               0-4.994495931E+00-2.341468439E-01+
*       2.5835034011E+02               0
GRID*               2442               0-4.524374924E+00-2.128356385E+00+
*       2.5492671750E+02               0
GRID*               2443               0-4.524368641E+00-2.128367464E+00+
*       2.5835034049E+02               0
GRID*               2444               0-3.365198801E+00-3.698023323E+00+
*       2.5835034003E+02               0
GRID*               2445               0-1.694352360E+00-4.704113209E+00+
*       2.5492671678E+02               0
GRID*               2446               0-1.694377513E+00-4.704101422E+00+
*       2.5835033865E+02               0
GRID*               2447               02.3355039339E-01-4.994523845E+00+
*       2.5835034014E+02               0
GRID*               2448               02.1267323119E+00-4.525143500E+00+
*       2.5492671738E+02               0
GRID*               2449               02.1267351607E+00-4.525142256E+00+
*       2.5835034030E+02               0
GRID*               2450               03.6966658069E+00-3.366698776E+00+
*       2.5835034102E+02               0
GRID*               2451               04.5240038084E+002.1290728695E+00+
*       2.9601947410E+02               0
GRID*               2452               04.5240035221E+002.1290681955E+00+
*       2.9800973669E+02               0
GRID*               2453               03.3652674895E+003.6979395874E+00+
*       2.9800973623E+02               0
GRID*               2454               04.5239962808E+002.1291022846E+00+
*       2.9185045048E+02               0
GRID*               2455               04.5239990594E+002.1290899568E+00+
*       2.9393496236E+02               0
GRID*               2456               04.5240348283E+002.1290214747E+00+
*       2.8729093010E+02               0
GRID*               2457               04.5240045023E+002.1290885717E+00+
*       2.8957069104E+02               0
GRID*               2458               04.5242172125E+002.1285949258E+00+
*       2.8212408479E+02               0
GRID*               2459               04.5241105299E+002.1288456110E+00+
*       2.8470750850E+02               0
GRID*               2460               04.5243500366E+002.1282902232E+00+
*       2.7615295870E+02               0
GRID*               2461               04.5242996154E+002.1284039573E+00+
*       2.7913852065E+02               0
GRID*               2462               04.5243985632E+002.1281914545E+00+
*       2.6930326251E+02               0
GRID*               2463               04.5243826572E+002.1282206571E+00+
*       2.7272811003E+02               0
GRID*               2464               04.5244091050E+002.1281862344E+00+
*       2.6177396013E+02               0
GRID*               2465               04.5244056610E+002.1281844341E+00+
*       2.6553861119E+02               0
GRID*               2466               04.5243843745E+002.1282526221E+00+
*       2.5492671678E+02               0
GRID*               2467               04.5243938104E+002.1282265029E+00+
*       2.5835033865E+02               0
GRID*               2468               04.5243767816E+002.1282715088E+00+
*       2.5246335859E+02               0
GRID*               2469               03.3659241748E+003.6973458782E+00+
*       2.5246335801E+02               0
GRID*               2470               01.6948844951E+004.7039731782E+00+
*       2.5246335882E+02               0
GRID*               2471               0-2.342231979E-014.9945084549E+00+
*       2.5246335881E+02               0
GRID*               2472               0-2.127007924E+004.5249707739E+00+
*       2.5246335859E+02               0
GRID*               2473               0-3.696137419E+003.3672515406E+00+
*       2.5246335801E+02               0
GRID*               2474               0-4.703511123E+001.6960832152E+00+
*       2.5246335867E+02               0
GRID*               2475               0-4.994497067E+00-2.341179159E-01+
*       2.5246335801E+02               0
GRID*               2476               0-4.524374534E+00-2.128358209E+00+
*       2.5246335879E+02               0
GRID*               2477               0-3.365188925E+00-3.698029769E+00+
*       2.5246335865E+02               0
GRID*               2478               0-1.694333631E+00-4.704121191E+00+
*       2.5246335859E+02               0
GRID*               2479               02.3352027311E-01-4.994525135E+00+
*       2.5246335801E+02               0
GRID*               2480               02.1267392921E+00-4.525140172E+00+
*       2.5246335874E+02               0
GRID*               2481               03.6966449550E+00-3.366721684E+00+
*       2.5246335886E+02               0
GRID*               2482               04.7036477094E+00-1.695647134E+00+
*       2.5246335859E+02               0
GRID*               2483               04.7036396751E+00-1.695665994E+00+
*       2.5492671678E+02               0
GRID*               2484               04.7036277842E+00-1.695691416E+00+
*       2.5835033864E+02               0
GRID*               2485               04.7036100202E+00-1.695731022E+00+
*       2.6177396010E+02               0
GRID*               2486               04.7036062380E+00-1.695730151E+00+
*       2.6553861116E+02               0
GRID*               2487               04.7036061884E+00-1.695720262E+00+
*       2.6930326248E+02               0
GRID*               2488               04.7036157198E+00-1.695688134E+00+
*       2.7272811001E+02               0
GRID*               2489               04.7036421621E+00-1.695615164E+00+
*       2.7615295869E+02               0
GRID*               2490               04.7036874397E+00-1.695497872E+00+
*       2.7913852068E+02               0
GRID*               2491               04.7037650398E+00-1.695302519E+00+
*       2.8212408488E+02               0
GRID*               2492               04.7038672663E+00-1.695048761E+00+
*       2.8470750862E+02               0
GRID*               2493               04.7039371867E+00-1.694873021E+00+
*       2.8729093016E+02               0
GRID*               2494               04.7039627181E+00-1.694805289E+00+
*       2.8957069107E+02               0
GRID*               2495               04.7039663617E+00-1.694790415E+00+
*       2.9185045048E+02               0
GRID*               2496               04.7039595326E+00-1.694801353E+00+
*       2.9393496236E+02               0
GRID*               2497               04.7039508145E+00-1.694816850E+00+
*       2.9601947410E+02               0
GRID*               2498               03.6972169534E+00-3.366093535E+00+
*       2.9800973616E+02               0
GRID*               2499               04.7039473463E+00-1.694819920E+00+
*       2.9800973669E+02               0
GRID*               2500               02.3440441656E-01-4.994480746E+00+
*       2.9800973622E+02               0
GRID*               2501               02.1275152373E+00-4.524775378E+00+
*       2.9800973624E+02               0
GRID*               2502               0-3.364551077E+00-3.698609372E+00+
*       2.9800973620E+02               0
GRID*               2503               0-1.693506353E+00-4.704420598E+00+
*       2.9800973669E+02               0
GRID*               2504               0-4.994452574E+00-2.350020726E-01+
*       2.9800973622E+02               0
GRID*               2505               0-4.524006664E+00-2.129142692E+00+
*       2.9800973646E+02               0
GRID*               2506               0-3.696731321E+003.3665951050E+00+
*       2.9800973623E+02               0
GRID*               2507               0-4.703806157E+001.6952663219E+00+
*       2.9800973641E+02               0
GRID*               2508               0-2.350751586E-014.9944683774E+00+
*       2.9800973618E+02               0
GRID*               2509               0-2.127804727E+004.5245977225E+00+
*       2.9800973669E+02               0
GRID*               2510               01.6940835053E+004.7042616272E+00+
*       2.9800973618E+02               0
GRID*               2511               02.7385543647E+00-7.286901406E-01+
*       -5.000000000E+00               0
GRID*               2512               0-7.362713358E-012.7446505743E+00+
*       -5.000000000E+00               0
GRID*               2513               03.3707719302E+003.3729075996E+00+
*       -5.000000000E+00               0
GRID*               2514               0-2.010396041E+00-2.005786141E+00+
*       -5.000000000E+00               0
GRID*               2515               0-4.606451073E+001.2343464620E+00+
*       -5.000000000E+00               0
GRID*               2516               01.2332705843E+00-4.604296245E+00+
*       -5.000000000E+00               0
GRID*               2517               0-3.681356679E-015.2473252871E+00+
*       -5.000000000E+00               0
GRID*               2518               0-2.305008558E+004.7285355838E+00+
*       -5.000000000E+00               0
GRID*               2519               05.2442771823E+00-3.643450703E-01+
*       -5.000000000E+00               0
GRID*               2520               04.7254874790E+00-2.301217960E+00+
*       -5.000000000E+00               0
GRID*               2521               03.6222588548E+005.0426640964E+00+
*       -5.000000000E+00               0
GRID*               2522               05.0415962617E+003.6233266895E+00+
*       -5.000000000E+00               0
GRID*               2523               01.6853859651E+005.5614537998E+00+
*       -5.000000000E+00               0
GRID*               2524               01.3172502972E+003.0587790869E+00+
*       -5.000000000E+00               0
GRID*               2525               05.5603859651E+001.6864537998E+00+
*       -5.000000000E+00               0
GRID*               2526               03.0546631474E+001.3221087295E+00+
*       -5.000000000E+00               0
GRID*               2527               01.0011415145E+001.0079802169E+00+
*       -5.000000000E+00               0
GRID*               2528               0-2.671361204E+001.9894985182E+00+
*       -5.000000000E+00               0
GRID*               2529               0-1.373333688E+003.6943221677E-01+
*       -5.000000000E+00               0
GRID*               2530               0-3.308423557E+00-3.857198394E-01+
*       -5.000000000E+00               0
GRID*               2531               0-4.240098426E+003.9733835276E+00+
*       -5.000000000E+00               0
GRID*               2532               0-5.659435833E+002.5540461207E+00+
*       -5.000000000E+00               0
GRID*               2533               0-6.178225537E+006.1717323101E-01+
*       -5.000000000E+00               0
GRID*               2534               0-4.361408317E+00-2.939765960E+00+
*       -5.000000000E+00               0
GRID*               2535               0-2.942070910E+00-4.359103367E+00+
*       -5.000000000E+00               0
GRID*               2536               0-5.659435833E+00-1.319699659E+00+
*       -5.000000000E+00               0
GRID*               2537               03.6407916184E-01-1.367238141E+00+
*       -5.000000000E+00               0
GRID*               2538               06.1663529217E-01-6.177148123E+00+
*       -5.000000000E+00               0
GRID*               2539               02.5535081819E+00-5.658358419E+00+
*       -5.000000000E+00               0
GRID*               2540               0-1.320237598E+00-5.658358419E+00+
*       -5.000000000E+00               0
GRID*               2541               0-3.885627283E-01-3.305041193E+00+
*       -5.000000000E+00               0
GRID*               2542               01.9859124745E+00-2.666493193E+00+
*       -5.000000000E+00               0
GRID*               2543               03.9728455888E+00-4.239021012E+00+
*       -5.000000000E+00               0
GRID*               2544               0-1.193349007E+00-1.310264832E+00+
*       3.0000000000E+02               0
GRID*               2545               01.1874556329E+001.3097481620E+00+
*       3.0000000000E+02               0
GRID*               2546               0-3.093900004E+00-7.726557349E-01+
*       3.0000000000E+02               0
GRID*               2547               0-2.278934318E+00-2.504451473E+00+
*       3.0000000000E+02               0
GRID*               2548               04.7616892383E-013.1521072832E+00+
*       3.0000000000E+02               0
GRID*               2549               02.2763452665E+002.5038590773E+00+
*       3.0000000000E+02               0
GRID*               2550               0-2.445055372E+001.0281488314E+00+
*       3.0000000000E+02               0
GRID*               2551               0-1.254653051E+002.3381553285E+00+
*       3.0000000000E+02               0
GRID*               2552               0-2.946687271E-03-2.583350248E-04+
*       3.0000000000E+02               0
GRID*               2553               03.0795969857E+007.7125182212E-01+
*       3.0000000000E+02               0
GRID*               2554               0-4.794500104E-01-3.152371996E+00+
*       3.0000000000E+02               0
GRID*               2555               01.2519484989E+00-2.338163225E+00+
*       3.0000000000E+02               0
GRID*               2556               02.4423508190E+00-1.028156728E+00+
*       3.0000000000E+02               0
GRID*               2557               07.4341796474E+002.1898433817E+00+
*       -2.371253037E+00               0
GRID*               2558               06.6180296566E+004.0328503582E+00+
*       -2.374668266E+00               0
GRID*               2559               05.3445381866E+005.6123169073E+00+
*       -2.371775650E+00               0
GRID*               2560               03.7238596131E+006.7967136304E+00+
*       -2.372938601E+00               0
GRID*               2561               01.8373524877E+007.5290348076E+00+
*       -2.371957369E+00               0
GRID*               2562               0-1.764052434E-017.7479740890E+00+
*       -2.375527360E+00               0
GRID*               2563               0-2.180613335E+007.4368926831E+00+
*       -2.378157886E+00               0
GRID*               2564               0-4.032864921E+006.6180207792E+00+
*       -2.374602984E+00               0
GRID*               2565               0-5.612056665E+005.3448115555E+00+
*       -2.371616405E+00               0
GRID*               2566               0-6.796546800E+003.7241637781E+00+
*       -2.372411723E+00               0
GRID*               2567               0-7.528919406E+001.8378256866E+00+
*       -2.371066261E+00               0
GRID*               2568               0-7.747972500E+00-1.764744985E-01+
*       -2.375500431E+00               0
GRID*               2569               0-7.437038748E+00-2.180115177E+00+
*       -2.376828572E+00               0
GRID*               2570               0-6.617974274E+00-4.032941205E+00+
*       -2.374634349E+00               0
GRID*               2571               0-5.345059324E+00-5.611820782E+00+
*       -2.370289223E+00               0
GRID*               2572               0-3.724098758E+00-6.796582426E+00+
*       -2.372660157E+00               0
GRID*               2573               0-1.838011725E+00-7.528874033E+00+
*       -2.369800858E+00               0
GRID*               2574               01.7653328643E-01-7.747971150E+00+
*       -2.375546351E+00               0
GRID*               2575               02.1796847888E+00-7.437164747E+00+
*       -2.375798982E+00               0
GRID*               2576               04.0329537624E+00-6.617966618E+00+
*       -2.374717347E+00               0
GRID*               2577               05.6120555569E+00-5.344812731E+00+
*       -2.370310731E+00               0
GRID*               2578               06.7965385515E+00-3.724178833E+00+
*       -2.372645179E+00               0
GRID*               2579               07.5289964842E+00-1.837509645E+00+
*       -2.371713954E+00               0
GRID*               2580               07.5894875975E+00-1.568768102E+00+
*       1.5248344776E+02               0
GRID*               2581               06.9240251177E+00-3.481419266E+00+
*       1.5250004146E+02               0
GRID*               2582               05.7933112967E+00-5.147706562E+00+
*       1.5249792132E+02               0
GRID*               2583               04.2734195461E+00-6.465229170E+00+
*       1.5250109817E+02               0
GRID*               2584               02.4475417812E+00-7.353362954E+00+
*       1.5250088436E+02               0
GRID*               2585               04.5251719786E-01-7.736703135E+00+
*       1.5249958446E+02               0
GRID*               2586               0-1.570201346E+00-7.589191722E+00+
*       1.5251078627E+02               0
GRID*               2587               0-3.481354680E+00-6.924057592E+00+
*       1.5250023119E+02               0
GRID*               2588               0-5.147645715E+00-5.793365345E+00+
*       1.5249807032E+02               0
GRID*               2589               0-6.465275108E+00-4.273350071E+00+
*       1.5250102229E+02               0
GRID*               2590               0-7.353188222E+00-2.448066685E+00+
*       1.5249971002E+02               0
GRID*               2591               0-7.736716948E+00-4.522816456E-01+
*       1.5249929732E+02               0
GRID*               2592               0-7.589309861E+001.5696295923E+00+
*       1.5250788463E+02               0
GRID*               2593               0-6.923889043E+003.4816898856E+00+
*       1.5250235146E+02               0
GRID*               2594               0-5.793777534E+005.1471815778E+00+
*       1.5249488451E+02               0
GRID*               2595               0-4.273067075E+006.4654622149E+00+
*       1.5250057399E+02               0
GRID*               2596               0-2.448935674E+007.3528988653E+00+
*       1.5249443617E+02               0
GRID*               2597               0-4.520247497E-017.7367320039E+00+
*       1.5249891723E+02               0
GRID*               2598               01.5691288897E+007.5894132852E+00+
*       1.5250569505E+02               0
GRID*               2599               03.4818407749E+006.9238131657E+00+
*       1.5250269461E+02               0
GRID*               2600               05.1470584014E+005.7938869163E+00+
*       1.5249436674E+02               0
GRID*               2601               06.4654588138E+004.2730722196E+00+
*       1.5250059671E+02               0
GRID*               2602               07.3505486674E+002.4559809364E+00+
*       1.5250402334E+02               0
GRID*               2603               03.4833885948E+00-5.640027570E-01+
*       6.2140005076E+00               0
GRID*               2604               04.1916106093E+00-8.032948659E-01+
*       1.1048898007E+00               0
GRID*               2605               01.2498637896E+00-2.635914032E-01+
*       3.0942731282E+00               0
GRID*               2606               01.0324799450E+003.4823487218E+00+
*       2.1481958733E+00               0
GRID*               2607               02.0047556987E+001.9402951800E+00+
*       -1.967151036E+00               0
GRID*               2608               01.0651108314E+00-1.441540247E+00+
*       -2.035394278E+00               0
GRID*               2609               0-1.303177616E+00-6.962483449E-01+
*       1.0468543396E+00               0
GRID*               2610               03.4070116263E-01-4.130375145E+00+
*       2.0884434161E+00               0
GRID*               2611               04.8039693709E-01-4.012179506E+00+
*       6.7353860723E+00               0
GRID*               2612               0-3.461022389E+00-8.816706791E-01+
*       3.6068368949E+00               0
GRID*               2613               03.7752842858E+003.3142074457E-01+
*       1.5633816492E+02               0
GRID*               2614               02.2491431601E+002.2530598159E+00+
*       1.5798533111E+02               0
GRID*               2615               0-2.379981298E+002.0990947936E+00+
*       1.5516747896E+02               0
GRID*               2616               02.4534079704E+003.1322022263E+00+
*       1.5289066410E+02               0
GRID*               2617               0-1.338581881E+004.1777945307E+00+
*       1.5729077506E+02               0
GRID*               2618               0-3.600889584E+009.9320336715E-01+
*       2.3120112054E+02               0
GRID*               2619               0-1.155767702E+003.8503366334E+00+
*       2.3063763196E+02               0
GRID*               2620               0-2.038425235E+002.4063266054E+00+
*       2.3358261535E+02               0
GRID*               2621               01.9550974510E+002.0615518441E+00+
*       2.3131126141E+02               0
GRID*               2622               01.7073586838E+003.3660958834E+00+
*       2.2706492606E+02               0
GRID*               2623               01.6244067914E+00-3.944239011E-01+
*       2.2820556431E+02               0
GRID*               2624               0-3.003535965E+004.4534958859E-02+
*       2.2681652991E+02               0
GRID*               2625               09.8872741670E-01-2.033206778E+00+
*       2.3132421513E+02               0
GRID*               2626               02.7807903256E+00-2.784375397E-01+
*       2.2446619894E+02               0
GRID*               2627               02.0844551838E+00-3.116956791E+00+
*       2.1006333311E+02               0
GRID*               2628               0-3.317963949E-01-3.478775792E+00+
*       2.2166224322E+02               0
GRID*               2629               05.2957223616E-01-3.652460913E+00+
*       2.2646468167E+02               0
GRID*               2630               0-1.878129613E+00-2.886282478E+00+
*       2.2501974991E+02               0
GRID*               2631               04.2560198542E+00-8.749630579E-01+
*       2.3022517493E+02               0
GRID*               2632               02.7326269728E+00-2.870430889E-01+
*       1.6624485132E+02               0
GRID*               2633               02.3235131983E+009.6547957303E-01+
*       1.7186917382E+02               0
GRID*               2634               01.1165836200E+003.3122651584E+00+
*       1.6683359183E+02               0
GRID*               2635               06.1279553929E-023.7814622318E+00+
*       1.6191223757E+02               0
GRID*               2636               0-2.978004444E+001.8875379193E+00+
*       1.6491755039E+02               0
GRID*               2637               0-1.929452445E+00-1.088822813E+00+
*       1.6769995399E+02               0
GRID*               2638               0-1.460100689E+002.4364931536E+00+
*       1.7165106959E+02               0
GRID*               2639               0-2.103400488E+002.9996869455E+00+
*       7.3971502676E+01               0
GRID*               2640               0-2.000513674E+003.9388731781E+00+
*       1.1943526219E+02               0
GRID*               2641               0-9.522651382E-014.1284451361E+00+
*       1.1417815326E+02               0
GRID*               2642               01.3296987588E+002.7663853621E+00+
*       1.1959038569E+02               0
GRID*               2643               05.7783377528E-019.0882460225E-01+
*       1.1543528472E+02               0
GRID*               2644               04.0662973308E+00-2.172855101E-01+
*       1.1829684769E+02               0
GRID*               2645               01.6289817621E+001.2292366557E-01+
*       9.8444658069E+01               0
GRID*               2646               04.0424691650E-013.3540725055E+00+
*       1.0025813412E+02               0
GRID*               2647               01.5455156026E+003.3908113382E+00+
*       9.4398034498E+01               0
GRID*               2648               0-3.224116762E+002.1946461062E+00+
*       9.8840770934E+01               0
GRID*               2649               02.0705750090E+00-1.982143184E+00+
*       4.7933007424E+01               0
GRID*               2650               0-3.772220245E+001.9204096585E+00+
*       1.0366127026E+02               0
GRID*               2651               0-2.930675967E+00-5.324564548E-01+
*       1.0018908562E+02               0
GRID*               2652               0-2.861285771E+001.2100026163E+00+
*       9.3635351626E+01               0
GRID*               2653               01.9647456136E+00-3.864638100E-01+
*       1.0383405469E+02               0
GRID*               2654               0-5.983060210E-02-4.285058035E+00+
*       1.0102629481E+02               0
GRID*               2655               07.5478188218E-01-3.246998327E+00+
*       1.0526146894E+02               0
GRID*               2656               0-2.798418029E+00-2.777739205E+00+
*       1.0349151576E+02               0
GRID*               2657               01.0764984888E-014.2877218716E+00+
*       1.3672302735E+02               0
GRID*               2658               0-2.718222464E+00-3.039422522E-01+
*       1.0546983029E+02               0
GRID*               2659               0-2.865930398E+00-2.475661793E+00+
*       9.8414672814E+01               0
GRID*               2660               01.0442804456E+003.4528338305E+00+
*       1.0549769538E+02               0
GRID*               2661               0-2.719968872E+00-2.893477060E+00+
*       1.5934896957E+02               0
GRID*               2662               01.4695294892E-01-2.542404342E-01+
*       1.6177215679E+02               0
GRID*               2663               09.5376107401E-01-3.408880518E+00+
*       1.6176227315E+02               0
GRID*               2664               01.0289067867E+00-1.653678976E+00+
*       1.5722411691E+02               0
GRID*               2665               0-2.091905580E+002.6613989609E+00+
*       1.6048864319E+02               0
GRID*               2666               03.6787234359E+002.6186308796E-01+
*       2.3884425850E+02               0
GRID*               2667               0-2.031624186E+00-3.084312612E+00+
*       2.3837998501E+02               0
GRID*               2668               0-2.711057857E+002.3096982144E+00+
*       2.3918783347E+02               0
GRID*               2669               0-6.571112033E-02-5.379894813E-03+
*       2.3561627135E+02               0
GRID*               2670               03.5799530599E+003.4139029105E+00+
*       1.3655318068E+02               0
GRID*               2671               01.4917020200E+00-3.768332729E+00+
*       2.3585976437E+02               0
GRID*               2672               03.6710041955E+002.5937389732E-01+
*       2.3451927242E+02               0
GRID*               2673               03.7021096215E+002.5330043487E+00+
*       2.3622233800E+02               0
GRID*               2674               0-4.153015914E+001.3779496707E-01+
*       2.3590356730E+02               0
GRID*               2675               0-2.245525881E+00-2.987826152E+00+
*       2.3258580293E+02               0
GRID*               2676               0-3.443466317E+00-4.729649191E-01+
*       1.4092743897E+02               0
GRID*               2677               0-3.184685370E+00-3.114856535E+00+
*       1.4789725857E+02               0
GRID*               2678               0-1.295261851E-014.2440828286E+00+
*       1.4090581686E+02               0
GRID*               2679               03.4600229868E+005.1322058669E-02+
*       1.3505810027E+02               0
GRID*               2680               03.1592425279E-02-4.327728111E+00+
*       1.3698976858E+02               0
GRID*               2681               0-2.568164146E-01-4.132258980E+00+
*       1.3203866775E+02               0
GRID*               2682               03.8471815821E+00-2.961720380E+00+
*       1.3642768944E+02               0
GRID*               2683               0-5.228645965E-01-3.978015103E+00+
*       1.4050280778E+02               0
GRID*               2684               0-3.387469981E+00-3.600338646E-02+
*       1.3683583816E+02               0
GRID*               2685               0-4.195481926E+001.6776025847E-01+
*       1.3142817252E+02               0
GRID*               2686               08.4886157483E-02-2.750868603E-02+
*       1.3190283700E+02               0
GRID*               2687               0-1.181537693E+00-1.921489916E+00+
*       1.3452871969E+02               0
GRID*               2688               0-4.381443284E+00-7.086518902E-01+
*       1.4473029168E+02               0
GRID*               2689               0-3.710704524E+00-3.154214364E+00+
*       1.4365819442E+02               0
GRID*               2690               0-1.739620198E-017.7528878576E-03+
*       1.4614558667E+02               0
GRID*               2691               0-9.360308517E-01-3.619404218E+00+
*       1.4353899746E+02               0
GRID*               2692               01.8332619739E-01-2.025407713E-02+
*       1.3992352032E+02               0
GRID*               2693               0-3.082916942E+00-2.421331469E+00+
*       1.5176027022E+02               0
GRID*               2694               02.5649694057E+006.1073627150E-02+
*       6.0981543363E+01               0
GRID*               2695               02.3819382896E+001.8492516592E+00+
*       5.4241794258E+01               0
GRID*               2696               07.0704755158E-013.0433757115E+00+
*       5.6620906012E+01               0
GRID*               2697               0-2.275156278E+001.6201848369E+00+
*       4.8977451593E+01               0
GRID*               2698               0-2.328545448E+00-7.416121003E-01+
*       5.5258515867E+01               0
GRID*               2699               0-1.904774690E-01-3.129359229E+00+
*       5.5908631484E+01               0
GRID*               2700               0-2.823974551E+009.4060407209E-02+
*       6.2855783776E+01               0
GRID*               2701               04.0660590025E-012.5025804519E+00+
*       6.2716723140E+01               0
GRID*               2702               04.0155877662E+00-1.037246724E+00+
*       1.4729811502E+02               0
GRID*               2703               09.0103797643E-01-1.360408334E+00+
*       1.1965605665E+02               0
GRID*               2704               01.4708867222E+00-4.231321122E+00+
*       1.1853316113E+02               0
GRID*               2705               0-1.073775144E+00-4.348035311E+00+
*       1.2339372701E+02               0
GRID*               2706               03.8374806317E-01-3.896835432E-01+
*       1.2334250490E+02               0
GRID*               2707               03.7217322839E+00-2.234652530E+00+
*       1.2411049296E+02               0
GRID*               2708               0-2.590111453E+00-2.586442538E+00+
*       1.2038795588E+02               0
GRID*               2709               0-1.909678644E+00-2.879112177E+00+
*       1.1604797492E+02               0
GRID*               2710               01.4096511861E+00-3.717928001E+00+
*       1.1464988549E+02               0
GRID*               2711               01.7452441754E+00-2.079973023E-01+
*       4.0351264707E+01               0
GRID*               2712               02.3998203283E+001.9692597769E+00+
*       4.7400264279E+01               0
GRID*               2713               0-3.906500623E+00-9.637709947E-01+
*       1.1892610356E+02               0
GRID*               2714               0-3.107111870E+002.2107280270E+00+
*       1.1805414381E+02               0
GRID*               2715               03.7019380317E+001.6796120383E-01+
*       1.2234231807E+02               0
GRID*               2716               03.6207911772E+002.7526898985E-01+
*       1.2599411619E+02               0
GRID*               2717               04.6529224594E-01-4.235405836E+00+
*       1.2811619289E+02               0
GRID*               2718               03.3293282246E+00-2.140920412E+00+
*       1.2834765869E+02               0
GRID*               2719               0-2.516998279E+002.3856275672E+00+
*       1.2177087100E+02               0
GRID*               2720               0-7.469417676E-023.8714914619E+00+
*       1.2367594627E+02               0
GRID*               2721               02.3298361159E+00-2.788061586E+00+
*       7.6653826686E+01               0
GRID*               2722               02.8655686319E+005.2906842146E-01+
*       7.4686607090E+01               0
GRID*               2723               0-2.958186817E-01-3.569307865E+00+
*       7.3539258928E+01               0
GRID*               2724               0-2.492766714E+00-8.563913396E-01+
*       7.0285614739E+01               0
GRID*               2725               0-1.801714070E+00-5.913774352E-02+
*       7.7898299059E+01               0
GRID*               2726               0-4.627849033E-01-2.991173933E+00+
*       6.7621852277E+01               0
GRID*               2727               0-7.113361433E-014.1744295922E+00+
*       2.3633651248E+02               0
GRID*               2728               03.7453601047E+003.3042506713E+00+
*       2.4016783405E+02               0
GRID*               2729               0-1.003917389E+00-3.328806746E+00+
*       1.1229503730E+01               0
GRID*               2730               0-3.874884973E+00-7.432938374E-01+
*       7.7076403892E+00               0
GRID*               2731               0-1.689805746E-012.7595898693E-01+
*       7.6503322459E+00               0
GRID*               2732               0-3.462979389E+00-4.624519982E-01+
*       1.1520161595E+01               0
GRID*               2733               0-5.546328946E-01-3.010329938E+00+
*       1.7457368889E+01               0
GRID*               2734               03.2615973043E+002.5617811317E+00+
*       1.3148883892E+02               0
GRID*               2735               03.7943059491E+001.2276091667E-01+
*       1.3080102373E+02               0
GRID*               2736               0-2.515347040E-014.4956373271E+00+
*       1.2858241162E+02               0
GRID*               2737               03.4709952752E+002.5079340968E+00+
*       1.2810210343E+02               0
GRID*               2738               02.9347178942E-03-8.891694007E-03+
*       1.2802555595E+02               0
GRID*               2739               0-4.021013711E+002.2892968276E-01+
*       -1.934018897E+00               0
GRID*               2740               03.6789911615E+00-2.636125841E+00+
*       -1.886559116E+00               0
GRID*               2741               0-1.775520412E+00-4.057660707E+00+
*       -1.904320987E+00               0
GRID*               2742               0-3.982372826E+00-6.689622296E-01+
*       2.4469239554E+02               0
GRID*               2743               09.7255198198E-02-3.471887233E+00+
*       2.4463564249E+02               0
GRID*               2744               0-1.755736778E-01-8.165141065E-02+
*       2.4180762100E+02               0
GRID*               2745               0-3.803902830E-021.3325112456E-01+
*       2.4550653968E+02               0
GRID*               2746               04.0656327780E+003.7005846362E-01+
*       2.4256631868E+02               0
GRID*               2747               0-2.119335593E-01-4.150620076E+00+
*       2.4045517373E+02               0
GRID*               2748               03.7942887384E+00-2.165905966E+00+
*       2.4058750214E+02               0
GRID*               2749               0-3.265301927E+00-1.596101321E-01+
*       2.2134019320E+02               0
GRID*               2750               0-7.812995331E-013.5628777239E+00+
*       2.2043426724E+02               0
GRID*               2751               0-1.648884785E+001.5419520271E+00+
*       2.2383054586E+02               0
GRID*               2752               0-4.048665420E+002.1063272073E-01+
*       1.1362977902E+02               0
GRID*               2753               08.9435979853E-01-3.015458973E-01+
*       2.5317716067E+02               0
GRID*               2754               09.7449450549E-024.8655917389E-03+
*       2.5827851790E+02               0
GRID*               2755               03.5837324172E+00-2.443213258E+00+
*       1.3194355591E+02               0
GRID*               2756               0-2.909898223E+003.2509864407E+00+
*       -1.879633234E+00               0
GRID*               2757               0-2.979366593E+002.9609664021E+00+
*       1.3904911427E+00               0
GRID*               2758               04.2072413840E+00-2.048031906E-01+
*       1.3932474333E+02               0
GRID*               2759               05.2428883531E-028.6023214306E-04+
*       2.7277209570E+02               0
GRID*               2760               03.8825659515E+00-2.308812413E+00+
*       1.4033867309E+02               0
GRID*               2761               0-1.472307624E-013.7100164013E+00+
*       1.4450251009E+02               0
GRID*               2762               03.3058896247E+002.8918305097E+00+
*       1.4435268718E+02               0
GRID*               2763               03.0455202604E+003.7944557131E+00+
*       1.4799052347E+02               0
GRID*               2764               02.8321737025E+001.4302267979E+00+
*       1.5004424992E+02               0
GRID*               2765               0-8.326294189E-014.0232201852E+00+
*       1.4956714387E+02               0
GRID*               2766               0-3.737245914E+002.1716720739E+00+
*       2.4739694737E+02               0
GRID*               2767               0-1.139731272E-02-2.021482538E-03+
*       2.6553882048E+02               0
GRID*               2768               0-1.745639752E+003.1900012253E+00+
*       2.4373101519E+02               0
GRID*               2769               0-9.264646881E-011.5063215594E-02+
*       2.4869473129E+02               0
GRID*               2770               02.2296961867E+00-2.800307156E+00+
*       1.6732921015E+02               0
GRID*               2771               01.2182684923E+00-2.666405738E+00+
*       1.7262844157E+02               0
GRID*               2772               0-2.556683201E+00-4.358743498E-01+
*       1.7345603687E+02               0
GRID*               2773               02.1873140085E+003.4750919083E-01+
*       1.7882115135E+02               0
GRID*               2774               0-1.773739081E-01-3.337423217E+00+
*       1.7878899779E+02               0
GRID*               2775               0-4.974961441E-01-2.584085663E+00+
*       2.1269408407E+02               0
GRID*               2776               0-2.102700116E-01-3.195493497E+00+
*       2.1592553864E+02               0
GRID*               2777               0-6.558041552E-014.2663353089E+00+
*       2.4004075427E+02               0
GRID*               2778               0-4.043505962E+002.4686536929E+00+
*       1.4335006665E+02               0
GRID*               2779               0-1.661799650E+00-2.627258756E+00+
*       1.5499900364E+02               0
GRID*               2780               03.2847571785E+00-2.092707907E+00+
*       1.5330297997E+02               0
GRID*               2781               0-1.090193137E+00-4.343031556E+00+
*       1.5704779508E+02               0
GRID*               2782               0-3.109933685E-01-4.127438863E+00+
*       1.5226980484E+02               0
GRID*               2783               08.2210483769E-013.9679866807E-01+
*       1.5387233370E+02               0
GRID*               2784               03.4287272632E+002.9889877868E-01+
*       2.2022590455E+02               0
GRID*               2785               0-2.309225784E+002.3797573419E+00+
*       2.1559735704E+02               0
GRID*               2786               07.9244056053E-023.0469884773E+00+
*       2.1298753649E+02               0
GRID*               2787               0-3.610540972E-011.6517503308E+00+
*       2.5154671276E+02               0
GRID*               2788               0-1.182030162E+00-1.590915556E+00+
*       2.5151831928E+02               0
GRID*               2789               01.8059127146E+008.4195613049E-03+
*       2.4916645879E+02               0
GRID*               2790               0-2.477565889E+00-2.613246847E-01+
*       2.0277996766E+02               0
GRID*               2791               0-1.902334635E+001.9792541701E-01+
*       1.9536310860E+02               0
GRID*               2792               0-3.394763260E-01-3.239396534E+00+
*       2.0719886856E+02               0
GRID*               2793               03.6763210751E-02-2.561804219E+00+
*       2.0141741662E+02               0
GRID*               2794               02.4503237720E+001.6634173320E-01+
*       1.9349035032E+02               0
GRID*               2795               02.5482038813E+001.3260792859E+00+
*       2.0105289739E+02               0
GRID*               2796               03.6316440017E+001.3414627402E+00+
*       1.1351503739E+02               0
GRID*               2797               0-1.668365051E+00-4.010262449E+00+
*       2.4769140041E+02               0
GRID*               2798               03.8935344532E+00-1.835880602E+00+
*       2.4467786660E+02               0
GRID*               2799               01.3802980698E+001.5597042577E-01+
*       2.8507678369E+02               0
GRID*               2800               06.2474992638E-021.0057158580E-03+
*       2.7918531651E+02               0
GRID*               2801               02.7807876019E-02-4.314360644E+00+
*       1.4859560974E+02               0
GRID*               2802               03.2276819740E+00-3.057980710E+00+
*       1.4358062395E+02               0
GRID*               2803               03.5849236576E+001.1713640384E-01+
*       1.4273445530E+02               0
GRID*               2804               02.3609297896E+004.3987456789E-01+
*       2.1475241556E+02               0
GRID*               2805               0-2.665207819E+00-1.198011952E+00+
*       2.0983959851E+02               0
GRID*               2806               0-2.647209315E+00-6.209071890E-01+
*       2.1521054604E+02               0
GRID*               2807               02.6813789351E+005.5346497768E-01+
*       2.0854792097E+02               0
GRID*               2808               0-1.356581700E+002.9759862191E+00+
*       2.0817208716E+02               0
GRID*               2809               0-2.377449319E+002.7229161485E+00+
*       1.2568592862E+02               0
GRID*               2810               0-3.917263765E-014.2736723176E+00+
*       1.3251805000E+02               0
GRID*               2811               0-3.113256657E+005.8973360162E-01+
*       8.8483718872E+01               0
GRID*               2812               0-4.880242260E-013.4646081392E+00+
*       8.8813333784E+01               0
GRID*               2813               01.9188081316E+008.6181824175E-01+
*       9.2391794980E+01               0
GRID*               2814               01.6590078553E+002.9787686704E+00+
*       8.3255001597E+01               0
GRID*               2815               03.3826917310E-02-3.591541839E+00+
*       1.1004984887E+02               0
GRID*               2816               03.2885754843E+00-5.207940681E-02+
*       8.7197547277E+01               0
GRID*               2817               0-9.638390116E-01-2.502259866E+00+
*       6.1639198178E+01               0
GRID*               2818               0-1.783164015E+00-1.340601318E-01+
*       2.9324020197E+02               0
GRID*               2819               0-1.084424078E+00-1.915323623E-01+
*       2.8919324444E+02               0
GRID*               2820               02.4105909174E+003.4586283870E+00+
*       7.6855802150E+01               0
GRID*               2821               01.2696951389E+009.6597307126E-01+
*       2.9458684682E+02               0
GRID*               2822               0-2.862564597E+00-2.753428521E+00+
*       9.3226884132E+01               0
GRID*               2823               0-3.145175565E+00-2.692983425E-01+
*       8.3152026869E+01               0
GRID*               2824               04.8333205575E-02-2.797655021E+00+
*       8.2701000080E+01               0
GRID*               2825               0-1.499625957E+00-3.267387450E+00+
*       8.7226909594E+01               0
GRID*               2826               03.2094102753E+001.0682071669E+00+
*       8.0411560735E+01               0
GRID*               2827               01.4166981653E+00-6.896586190E-02+
*       2.8989176823E+02               0
GRID*               2828               01.4849587881E+00-3.031328774E+00+
*       9.3834918730E+01               0
GRID*               2829               03.1992562973E+003.0137600997E+00+
*       1.3996981014E+02               0
GRID*               2830               0-1.743829785E+00-3.121979265E+00+
*       1.6554319513E+02               0
GRID*               2831               0-3.281371667E+003.1100781800E+00+
*       1.3497091760E+02               0
GRID*               2832               0-3.465367366E+00-2.138684213E-01+
*       1.1046333873E+02               0
GRID*               2833               02.4905905583E+006.9274267770E-03+
*       6.8073791891E+01               0
GRID*               2834               0-8.379554759E-012.9973595538E+00+
*       6.8107625816E+01               0
GRID*               2835               02.7468181671E+007.5615179860E-01+
*       2.4454930375E+01               0
GRID*               2836               01.0648704655E+003.5305450982E+00+
*       1.9045866634E+01               0
GRID*               2837               02.7866717242E+003.5780859697E+00+
*       2.0999612790E+02               0
GRID*               2838               0-3.279357504E+002.0948540722E-01+
*       1.2819018322E+02               0
GRID*               2839               0-3.012750290E+00-2.848347185E+00+
*       1.2465445827E+02               0
GRID*               2840               0-4.213808724E+001.3422688342E-01+
*       1.2296421601E+02               0
GRID*               2841               0-3.746131404E-035.2084432524E-01+
*       1.0939288873E+02               0
GRID*               2842               02.1639309799E-01-2.704872640E-01+
*       1.5047067065E+02               0
GRID*               2843               03.8795334100E+00-5.412992901E-02+
*       1.6128936795E+02               0
GRID*               2844               0-4.275781235E+00-6.815174035E-01+
*       1.5770507124E+02               0
GRID*               2845               0-3.405252821E+003.3134899444E-01+
*       1.7509031230E+01               0
GRID*               2846               0-3.628295105E-01-2.451700104E+00+
*       2.2978173680E+01               0
GRID*               2847               02.3215199316E+00-9.537310558E-02+
*       1.6292148766E+01               0
GRID*               2848               0-3.491265973E+00-1.711716531E+00+
*       2.4044788315E+02               0
GRID*               2849               03.2886086563E+002.7022230414E+00+
*       2.4427412671E+02               0
GRID*               2850               01.4649592309E+003.9512822195E+00+
*       2.4761562968E+02               0
GRID*               2851               0-2.161455350E+00-3.196255396E-01+
*       1.8170887782E+02               0
GRID*               2852               0-1.436188551E+002.7802436932E+00+
*       1.7789544621E+02               0
GRID*               2853               0-3.912077923E+001.6927476826E+00+
*       5.5888151915E+00               0
GRID*               2854               09.5621341312E-013.7878654519E+00+
*       6.2145032401E+00               0
GRID*               2855               0-1.430427868E+002.7722696210E+00+
*       1.0424738307E+01               0
GRID*               2856               0-3.916480990E+00-3.318445359E-02+
*       1.6197723020E+02               0
GRID*               2857               0-3.763689814E+002.8769396451E+00+
*       1.4789664826E+02               0
GRID*               2858               03.7903057276E+002.2558574400E-01+
*       1.0886942574E+02               0
GRID*               2859               0-6.083764450E-013.9143162793E+00+
*       1.0996657971E+02               0
GRID*               2860               0-3.694784513E+001.2758446078E+00+
*       1.5206734844E+02               0
GRID*               2861               0-3.688753399E+00-1.676480338E-01+
*       1.4899239750E+02               0
GRID*               2862               01.1374049082E+002.8468253563E+00+
*       1.9626869810E+02               0
GRID*               2863               0-8.794916207E-012.5515805485E+00+
*       2.0212780963E+02               0
GRID*               2864               0-1.939296996E+00-1.686452113E-01+
*       4.1378820564E+01               0
GRID*               2865               0-1.748076671E+00-1.442512970E+00+
*       4.8843451906E+01               0
GRID*               2866               0-2.647186674E+00-7.519915317E-01+
*       1.8829606051E+02               0
GRID*               2867               0-1.658647626E+004.8534693057E-01+
*       2.6079142289E+01               0
GRID*               2868               0-2.298562851E+00-8.806125014E-02+
*       3.2709328618E+01               0
GRID*               2869               02.8261632939E+00-1.041341987E+00+
*       1.0754652454E+01               0
GRID*               2870               02.2187381323E+00-9.910681936E-01+
*       2.9761210973E+02               0
GRID*               2871               0-1.044030183E+004.7194634073E-02+
*       2.8478952944E+02               0
GRID*               2872               01.3610997030E+003.7591697068E-01+
*       1.8771779745E+02               0
GRID*               2873               05.0757348060E+001.9475232585E+00+
*       -2.513360972E+00               0
GRID*               2874               01.6405801895E+005.0884350550E+00+
*       -2.273783091E+00               0
GRID*               2875               01.6354176438E+001.0916725869E-01+
*       3.3303031330E+01               0
GRID*               2876               0-2.031074423E+008.3108785215E-01+
*       2.9730342197E+02               0
GRID*               2877               03.7631065910E+00-3.440526729E+00+
*       5.1349227152E+00               0
GRID*               2878               03.8374996021E+00-6.836488115E-01+
*       3.6594451541E+00               0
GRID*               2879               04.1172175982E+00-3.560172784E+00+
*       2.5803673618E+00               0
GRID*               2880               02.6463441883E+00-3.290321052E+00+
*       3.5750590255E+00               0
GRID*               2881               02.3666261922E+00-4.137970801E-01+
*       4.6541368179E+00               0
GRID*               2882               02.7207371995E+00-5.334431346E-01+
*       2.0995814645E+00               0
GRID*               2883               02.6120452772E+001.3395269279E+00+
*       1.6265428370E+00               0
GRID*               2884               01.5186178219E+002.7113219509E+00+
*       9.0522418473E-02               0
GRID*               2885               03.0981831540E+005.6850015702E-01+
*       -4.311306178E-01               0
GRID*               2886               01.1411718673E+001.6093786593E+00+
*       2.6212345008E+00               0
GRID*               2887               01.6273097442E+008.3835188840E-01+
*       5.6356104591E-01               0
GRID*               2888               0-1.190333921E-01-1.068894296E+00+
*       -4.942699690E-01               0
GRID*               2889               0-4.812382265E-01-2.413311745E+00+
*       1.5676488779E+00               0
GRID*               2890               07.0290599703E-01-2.785957696E+00+
*       2.6524569312E-02               0
GRID*               2891               01.1574873105E+00-8.525658251E-01+
*       5.2943942534E-01               0
GRID*               2892               0-2.665691306E-02-4.799198741E-01+
*       2.0705637339E+00               0
GRID*               2893               07.9528247611E-01-2.196983274E+00+
*       2.5913582722E+00               0
GRID*               2894               02.1917628749E+00-5.223712923E+00+
*       3.0721441695E+00               0
GRID*               2895               04.1054904986E-01-4.071277325E+00+
*       4.4119147442E+00               0
GRID*               2896               02.2616107621E+00-5.164615103E+00+
*       5.3956154976E+00               0
GRID*               2897               08.6513036334E-01-2.137885455E+00+
*       4.9148296002E+00               0
GRID*               2898               0-2.382100003E+00-7.889595120E-01+
*       2.3268456173E+00               0
GRID*               2899               0-1.353488353E-011.3930501884E+00+
*       1.5975251065E+00               0
GRID*               2900               0-1.214271222E+001.3003390214E+00+
*       2.8775163841E+00               0
GRID*               2901               0-1.105579300E+00-5.726310412E-01+
*       3.3505550116E+00               0
GRID*               2902               0-1.490312726E+00-2.446925092E+00+
*       5.1711114836E+00               0
GRID*               2903               0-1.560160613E+00-2.506022912E+00+
*       2.8476401555E+00               0
GRID*               2904               04.9913744530E+002.2702594463E+00+
*       1.5566908246E+02               0
GRID*               2905               04.9915095727E+002.2700611797E+00+
*       1.5770915741E+02               0
GRID*               2906               04.2283038901E+003.2310789820E+00+
*       1.5649266556E+02               0
GRID*               2907               03.0122137230E+001.2922402802E+00+
*       1.5716174801E+02               0
GRID*               2908               04.2284390098E+003.2308807154E+00+
*       1.5853274050E+02               0
GRID*               2909               0-1.461417776E+004.7896820459E+00+
*       1.5508373948E+02               0
GRID*               2910               03.6713335998E-022.6156485099E+00+
*       1.5402907153E+02               0
GRID*               2911               09.5527685858E-015.3062357622E+00+
*       1.5394533205E+02               0
GRID*               2912               0-9.407180673E-015.8290319144E+00+
*       1.5614538753E+02               0
GRID*               2913               0-1.859281590E+003.1384446621E+00+
*       1.5622912701E+02               0
GRID*               2914               05.5741304458E-013.6549983785E+00+
*       1.5509071958E+02               0
GRID*               2915               02.8616116196E+004.9409427104E+00+
*       1.5394533205E+02               0
GRID*               2916               09.6561669375E-015.4637388626E+00+
*       1.5614538753E+02               0
GRID*               2917               04.3304362953E+003.6706501872E+00+
*       1.5394533205E+02               0
GRID*               2918               03.1143461281E+001.7318114854E+00+
*       1.5461441451E+02               0
GRID*               2919               02.3512755653E+002.6926310211E+00+
*       1.5543799760E+02               0
GRID*               2920               0-2.378328643E+002.4217700003E+00+
*       2.3091937625E+02               0
GRID*               2921               0-1.597096469E+003.1283316194E+00+
*       2.3211012366E+02               0
GRID*               2922               0-2.819657410E+001.6997649863E+00+
*       2.3239186795E+02               0
GRID*               2923               0-8.228960666E-011.5273776056E+00+
*       2.3125619098E+02               0
GRID*               2924               03.9966487454E-012.9559442387E+00+
*       2.3097444669E+02               0
GRID*               2925               0-4.166389209E-022.2339392247E+00+
*       2.3244693838E+02               0
GRID*               2926               03.9589373713E+003.7853359820E+00+
*       2.2791363652E+02               0
GRID*               2927               01.6658827376E+001.4858359911E+00+
*       2.2763524519E+02               0
GRID*               2928               03.9174614251E+001.9050760898E+00+
*       2.2848395564E+02               0
GRID*               2929               04.0828067549E+003.1330639624E+00+
*       2.3003680419E+02               0
GRID*               2930               01.8312280674E+002.7138238637E+00+
*       2.2918809373E+02               0
GRID*               2931               01.7897521212E+008.3356397149E-01+
*       2.2975841286E+02               0
GRID*               2932               0-1.007404274E+00-9.943359095E-01+
*       2.2907037252E+02               0
GRID*               2933               01.3065671041E+00-1.213815339E+00+
*       2.2976488972E+02               0
GRID*               2934               0-6.895645867E-01-1.749444711E-01+
*       2.2751104711E+02               0
GRID*               2935               0-5.242192569E-011.0530434015E+00+
*       2.2906389566E+02               0
GRID*               2936               01.4719124339E+001.4172533152E-02+
*       2.3131773827E+02               0
GRID*               2937               02.2440745047E+001.5438291719E+00+
*       2.2576556250E+02               0
GRID*               2938               04.4956531922E+001.9630692705E+00+
*       2.2661427296E+02               0
GRID*               2939               02.2025985585E+00-3.364307204E-01+
*       2.2633588163E+02               0
GRID*               2940               03.1450053734E+00-4.663396547E+00+
*       2.1122349551E+02               0
GRID*               2941               03.1451893633E+00-4.663269536E+00+
*       2.0798776257E+02               0
GRID*               2942               01.3117513794E+00-5.298736692E+00+
*       2.0798776257E+02               0
GRID*               2943               01.0595241046E+005.2987976481E+00+
*       2.2969998799E+02               0
GRID*               2944               02.7579549090E-013.6082162584E+00+
*       2.2885127901E+02               0
GRID*               2945               02.4910872974E+005.0566772731E+00+
*       2.2791363504E+02               0
GRID*               2946               02.6149566811E+004.4044052535E+00+
*       2.3003680271E+02               0
GRID*               2947               01.2244969654E+00-1.878606666E+00+
*       2.2306422108E+02               0
GRID*               2948               09.8887920621E-02-3.565618353E+00+
*       2.2406346245E+02               0
GRID*               2949               01.6551812809E+00-1.965449226E+00+
*       2.2546544031E+02               0
GRID*               2950               04.5133035654E-01-1.582360009E+00+
*       2.2474297442E+02               0
GRID*               2951               0-1.104963004E+00-3.182529135E+00+
*       2.2334099656E+02               0
GRID*               2952               0-6.742786882E-01-3.269371695E+00+
*       2.2574221579E+02               0
GRID*               2953               0-6.480886405E-011.7053154211E+00+
*       2.2694072799E+02               0
GRID*               2954               0-1.113728196E-01-1.169512904E-01+
*       2.2564136443E+02               0
GRID*               2955               02.3670741584E+00-4.931488486E+00+
*       2.2761351432E+02               0
GRID*               2956               07.5914982643E-01-2.842833845E+00+
*       2.2889444840E+02               0
GRID*               2957               02.5966517487E+00-4.121861418E+00+
*       2.3004328105E+02               0
GRID*               2958               02.9144914361E+00-3.302469980E+00+
*       2.2848395564E+02               0
GRID*               2959               01.0769895138E+00-2.023442407E+00+
*       2.2733512299E+02               0
GRID*               2960               0-1.236981864E+00-1.803962977E+00+
*       2.2664060579E+02               0
GRID*               2961               02.9402133228E+00-6.346934795E-01+
*       2.2921536962E+02               0
GRID*               2962               02.6223736354E+00-1.454084918E+00+
*       2.3077469503E+02               0
GRID*               2963               03.1055586526E+005.9329439306E-01+
*       2.3076821817E+02               0
GRID*               2964               04.4705490326E+001.9602970739E+00+
*       1.6771672799E+02               0
GRID*               2965               02.5280700855E+003.3921824206E-01+
*       1.6905701257E+02               0
GRID*               2966               04.2659921454E+002.5865584049E+00+
*       1.7052888924E+02               0
GRID*               2967               03.6625273562E+003.7599511976E+00+
*       1.6801109824E+02               0
GRID*               2968               01.9246052964E+001.5126110347E+00+
*       1.6653922157E+02               0
GRID*               2969               01.7200484092E+002.1388723657E+00+
*       1.6935138283E+02               0
GRID*               2970               01.3969532633E+001.7472095715E+00+
*       1.6407854444E+02               0
GRID*               2971               0-1.458362445E+002.8345000756E+00+
*       1.6341489398E+02               0
GRID*               2972               0-1.226887354E-018.0024741521E-01+
*       1.6558120085E+02               0
GRID*               2973               05.8893158696E-013.5468636951E+00+
*       1.6437291470E+02               0
GRID*               2974               0-9.307104118E-012.5999015389E+00+
*       1.6587557111E+02               0
GRID*               2975               03.1346733874E+003.9948417105E+00+
*       1.6277593338E+02               0
GRID*               2976               04.4703470968E+001.9605890501E+00+
*       1.6494224025E+02               0
GRID*               2977               03.6623254205E+003.7602431737E+00+
*       1.6523661051E+02               0
GRID*               2978               0-2.453728444E+003.9935755303E-01+
*       1.6630875219E+02               0
GRID*               2979               0-2.219052566E+002.1620155365E+00+
*       1.6828430999E+02               0
GRID*               2980               0-1.694776567E+006.7383517018E-01+
*       1.6967551179E+02               0
GRID*               2981               0-4.064344124E-011.1117211726E+00+
*       1.6726677291E+02               0
GRID*               2982               0-1.717585345E-012.8743791560E+00+
*       1.6924233071E+02               0
GRID*               2983               0-2.833868963E+004.3224821230E+00+
*       1.7041983712E+02               0
GRID*               2984               0-3.592820840E+004.0480045059E+00+
*       1.6705307752E+02               0
GRID*               2985               0-1.545526808E+004.7603681254E+00+
*       1.6801109824E+02               0
GRID*               2986               02.8774907276E-015.3963379745E+00+
*       1.6801109825E+02               0
GRID*               2987               02.8739503703E-015.3963090014E+00+
*       1.6523661052E+02               0
GRID*               2988               0-4.381446266E+003.2247401437E+00+
*       7.6531132772E+01               0
GRID*               2989               0-4.797781530E+001.3290237663E+00+
*       7.6531134165E+01               0
GRID*               2990               0-4.381494928E+003.2246462831E+00+
*       7.3294614781E+01               0
GRID*               2991               07.2521301785E-015.2988860882E+00+
*       1.1808262158E+02               0
GRID*               2992               0-1.476389406E+004.0336591571E+00+
*       1.1680670772E+02               0
GRID*               2993               01.2493372857E+005.3936720673E+00+
*       1.1545406712E+02               0
GRID*               2994               02.3903192342E+004.7126421803E+00+
*       1.1816018333E+02               0
GRID*               2995               0-3.354074576E-013.3526292701E+00+
*       1.1951282394E+02               0
GRID*               2996               01.8871681026E-013.4474152491E+00+
*       1.1688426947E+02               0
GRID*               2997               03.4484785234E+002.4741976804E+00+
*       1.1608263318E+02               0
GRID*               2998               02.3220655530E+003.4576954609E-01+
*       1.1686606620E+02               0
GRID*               2999               05.1927103012E+001.9111426242E+00+
*       1.1751341466E+02               0
GRID*               3000               03.8244110152E+003.4029780603E+00+
*       1.1816018366E+02               0
GRID*               3001               09.5376626702E-011.8376049822E+00+
*       1.1751283520E+02               0
GRID*               3002               02.6979980448E+001.2745499260E+00+
*       1.1894361669E+02               0
GRID*               3003               05.1927560984E+001.9110723810E+00+
*       1.1977139286E+02               0
GRID*               3004               03.8244568124E+003.4029078171E+00+
*       1.2041816186E+02               0
GRID*               3005               01.0166143393E+001.7384980856E+00+
*       9.9351396093E+01               0
GRID*               3006               09.7488125955E-013.3724419219E+00+
*       9.7328084308E+01               0
GRID*               3007               01.5872486824E+001.7568675019E+00+
*       9.6421346284E+01               0
GRID*               3008               0-7.975675001E-011.1587848859E+00+
*       9.8642714502E+01               0
GRID*               3009               0-1.409934923E+002.7743593059E+00+
*       9.9549452526E+01               0
GRID*               3010               0-8.393005799E-012.7927287222E+00+
*       9.6619402716E+01               0
GRID*               3011               0-1.817978665E+004.8363906902E+00+
*       9.8497460969E+01               0
GRID*               3012               0-1.817893549E+004.8364464396E+00+
*       1.0116501604E+02               0
GRID*               3013               0-3.632075389E+004.2567332400E+00+
*       1.0045633445E+02               0
GRID*               3014               0-3.632160505E+004.2566774906E+00+
*       9.7788779377E+01               0
GRID*               3015               04.3652278048E+00-2.715594848E+00+
*       4.9703291674E+01               0
GRID*               3016               04.3652784424E+00-2.715497752E+00+
*       4.5937703913E+01               0
GRID*               3017               03.0561760160E+00-4.149917098E+00+
*       4.5937705892E+01               0
GRID*               3018               0-5.632216038E+007.8982192917E-01+
*       1.0286658409E+02               0
GRID*               3019               0-3.351448106E+006.9397660190E-01+
*       1.0192517794E+02               0
GRID*               3020               0-5.211443900E+00-4.366111275E-01+
*       1.0113049178E+02               0
GRID*               3021               0-5.358164297E+009.2694015301E-01+
*       1.0045633443E+02               0
GRID*               3022               0-3.498168504E+002.0575278824E+00+
*       1.0125102060E+02               0
GRID*               3023               0-3.077396365E+008.3109482574E-01+
*       9.9514928279E+01               0
GRID*               3024               0-6.508471026E-01-2.047663946E-01+
*       9.9316871846E+01               0
GRID*               3025               0-1.263214525E+001.4108080254E+00+
*       1.0022360987E+02               0
GRID*               3026               0-5.211438150E+00-4.367127972E-01+
*       9.8462936710E+01               0
GRID*               3027               0-5.358158548E+009.2683848333E-01+
*       9.7788779365E+01               0
GRID*               3028               0-2.895980869E+003.3877308078E-01+
*       9.6912218625E+01               0
GRID*               3029               0-5.176743052E+004.3451673838E-01+
*       9.5186069711E+01               0
GRID*               3030               0-3.042701266E+001.7023243613E+00+
*       9.6238061280E+01               0
GRID*               3031               09.5245750575E-01-2.335760923E+00+
*       1.0243017475E+02               0
GRID*               3032               03.4747564004E-01-3.766028181E+00+
*       1.0314388188E+02               0
GRID*               3033               01.3597637479E+00-1.816731069E+00+
*       1.0454776181E+02               0
GRID*               3034               0-4.168362080E-01-1.582101507E+00+
*       1.0366278522E+02               0
GRID*               3035               0-1.429124316E+00-3.531398620E+00+
*       1.0225890529E+02               0
GRID*               3036               0-1.021818074E+00-3.012368766E+00+
*       1.0437649235E+02               0
GRID*               3037               01.7796211557E+005.4731415733E+00+
*       1.3739958853E+02               0
GRID*               3038               0-1.158943364E-015.8900026356E+00+
*       1.3739958852E+02               0
GRID*               3039               01.7795595789E+005.4731734499E+00+
*       1.3536636028E+02               0
GRID*               3040               0-1.347852953E+00-4.953065504E+00+
*       1.0366668275E+02               0
GRID*               3041               05.4777384119E-01-5.369605080E+00+
*       1.0366668344E+02               0
GRID*               3042               0-1.755159195E+00-5.472095358E+00+
*       1.0154909568E+02               0
GRID*               3043               01.4046759905E-01-5.888634934E+00+
*       1.0154909637E+02               0
GRID*               3044               0-2.824449215E+00-4.181993535E-01+
*       1.0282945796E+02               0
GRID*               3045               0-5.105217148E+00-3.223540262E-01+
*       1.0377086411E+02               0
GRID*               3046               0-5.145314931E+00-1.559252502E+00+
*       1.0278170685E+02               0
GRID*               3047               0-2.864546998E+00-1.655097830E+00+
*       1.0184030069E+02               0
GRID*               3048               0-2.758320247E+00-1.540840728E+00+
*       1.0448067303E+02               0
GRID*               3049               0-4.592375386E+00-3.257847904E+00+
*       1.0024328539E+02               0
GRID*               3050               0-2.898303183E+00-1.504059124E+00+
*       9.9301879219E+01               0
GRID*               3051               0-4.624748171E+00-2.286245235E+00+
*       1.0113049179E+02               0
GRID*               3052               0-4.558619202E+00-3.408886610E+00+
*       1.0278170686E+02               0
GRID*               3053               0-2.832174214E+00-2.626700499E+00+
*       1.0095309429E+02               0
GRID*               3054               0-1.347931405E+00-4.953024937E+00+
*       1.0621415713E+02               0
GRID*               3055               0-3.124531361E+00-4.718395376E+00+
*       1.0532918054E+02               0
GRID*               3056               0-3.124452909E+00-4.718435942E+00+
*       1.0278170616E+02               0
GRID*               3057               0-1.497876785E+004.8858271021E+00+
*       1.0378479667E+02               0
GRID*               3058               0-1.497795788E+004.8858801186E+00+
*       1.0633227091E+02               0
GRID*               3059               0-3.906046134E+004.1196680326E+00+
*       1.0541405835E+02               0
GRID*               3060               0-3.906127130E+004.1196150161E+00+
*       1.0286658411E+02               0
GRID*               3061               0-1.363969900E+002.6866217445E+00+
*       1.0457948282E+02               0
GRID*               3062               0-5.105222589E+00-3.222572931E-01+
*       1.0631833835E+02               0
GRID*               3063               0-5.632221479E+007.8991866231E-01+
*       1.0541405833E+02               0
GRID*               3064               0-3.245221354E+008.0823370316E-01+
*       1.0456555028E+02               0
GRID*               3065               01.1844962650E+001.4838043478E+00+
*       1.0204609440E+02               0
GRID*               3066               0-4.829651769E-01-4.594601324E-01+
*       1.0201157015E+02               0
GRID*               3067               0-9.037373158E-017.6697292426E-01+
*       1.0374766247E+02               0
GRID*               3068               0-1.683986664E+002.6372410820E+00+
*       1.0195970219E+02               0
GRID*               3069               0-1.286507961E+00-1.573858747E+00+
*       1.6056056318E+02               0
GRID*               3070               05.5035701147E-01-1.831560476E+00+
*       1.6176721497E+02               0
GRID*               3071               0-8.831038988E-01-3.151178789E+00+
*       1.6055562136E+02               0
GRID*               3072               0-8.455310425E-01-2.273578018E+00+
*       1.5828654324E+02               0
GRID*               3073               05.8792986781E-01-9.539597050E-01+
*       1.5949813685E+02               0
GRID*               3074               09.9133393035E-01-2.531279747E+00+
*       1.5949319503E+02               0
GRID*               3075               0-9.724763154E-011.2035792634E+00+
*       1.6113039999E+02               0
GRID*               3076               0-5.314993965E-015.0385999258E-01+
*       1.5885638005E+02               0
GRID*               3077               07.8618790247E-022.4572293884E+00+
*       1.5923698715E+02               0
GRID*               3078               01.1980480545E+009.9940969085E-01+
*       1.5987874395E+02               0
GRID*               3079               01.6390249734E+002.9969042008E-01+
*       1.5760472401E+02               0
GRID*               3080               08.2354962508E-01-1.411224762E+00+
*       2.3861212175E+02               0
GRID*               3081               0-2.371341022E+00-3.873071988E-01+
*       2.3878390924E+02               0
GRID*               3082               04.8383278924E-011.2857806512E+00+
*       2.3901604598E+02               0
GRID*               3083               01.8065061578E+001.2824159658E-01+
*       2.3723026492E+02               0
GRID*               3084               0-1.048667653E+00-1.544846253E+00+
*       2.3699812818E+02               0
GRID*               3085               0-1.388384489E+001.1521591598E+00+
*       2.3740205241E+02               0
GRID*               3086               03.5157727612E+005.0362320927E+00+
*       1.3731466519E+02               0
GRID*               3087               03.5157111843E+005.0362639693E+00+
*       1.3528143694E+02               0
GRID*               3088               04.9497101547E+003.7264722770E+00+
*       1.3528143699E+02               0
GRID*               3089               02.5852127279E+00-1.753234820E+00+
*       2.3735201143E+02               0
GRID*               3090               0-2.699610829E-01-3.426322670E+00+
*       2.3711987469E+02               0
GRID*               3091               07.1299544981E-01-1.886856312E+00+
*       2.3573801786E+02               0
GRID*               3092               03.6747130692E+003.7626674373E+00+
*       1.0740979367E+00               0
GRID*               3093               03.6747653231E+003.7625866545E+00+
*       3.1020203981E+00               0
GRID*               3094               02.2399744495E+005.0715229774E+00+
*       3.1020204843E+00               0
GRID*               3095               02.3298658061E+00-8.869164402E-01+
*       2.3292174377E+02               0
GRID*               3096               01.2402147183E+00-2.900769753E+00+
*       2.3359198975E+02               0
GRID*               3097               02.5813531077E+00-1.754479416E+00+
*       2.3518951839E+02               0
GRID*               3098               01.8026465376E+001.2699700126E-01+
*       2.3506777189E+02               0
GRID*               3099               04.6150814819E-01-1.019293336E+00+
*       2.3347024324E+02               0
GRID*               3100               08.3184219313E-012.4696654770E+00+
*       2.3490247667E+02               0
GRID*               3101               01.8181992506E+001.2638122269E+00+
*       2.3591930468E+02               0
GRID*               3102               0-1.052068178E+001.2004733553E+00+
*       2.3459944335E+02               0
GRID*               3103               02.8286035363E+002.2972780964E+00+
*       2.3376679970E+02               0
GRID*               3104               09.4469316536E-011.0280859746E+00+
*       2.3346376638E+02               0
GRID*               3105               0-3.199270897E+00-1.425015592E+00+
*       2.3424468512E+02               0
GRID*               3106               0-2.141975558E+00-2.907497733E-01+
*       2.3308420914E+02               0
GRID*               3107               0-3.095720575E+001.2720607862E+00+
*       2.3474309133E+02               0
GRID*               3108               0-2.109363517E+006.6207536128E-02+
*       2.3575991933E+02               0
GRID*               3109               0-1.155618500E+00-1.496603023E+00+
*       2.3410103714E+02               0
GRID*               3110               0-3.876952749E+005.6549916711E-01+
*       2.3355234392E+02               0
GRID*               3111               0-2.923207732E+00-9.973113924E-01+
*       2.3189346174E+02               0
GRID*               3112               0-5.050982575E+001.4893740612E+00+
*       1.4150541138E+02               0
GRID*               3113               0-5.051013796E+001.4893137717E+00+
*       1.3950179434E+02               0
GRID*               3114               0-3.741193644E+002.9232901607E+00+
*       1.3950179435E+02               0
GRID*               3115               0-4.752224560E+00-3.576719193E+00+
*       1.4894862929E+02               0
GRID*               3116               0-4.752189778E+00-3.576773027E+00+
*       1.4697434929E+02               0
GRID*               3117               0-5.338491047E+00-1.727010034E+00+
*       1.4697434928E+02               0
GRID*               3118               01.6610934282E+005.4512908303E+00+
*       1.4149460032E+02               0
GRID*               3119               0-2.344126977E-015.8681865372E+00+
*       1.4149460030E+02               0
GRID*               3120               01.6610331387E+005.4513220517E+00+
*       1.3949098328E+02               0
GRID*               3121               01.7458077060E+00-2.138203026E+00+
*       1.3602393442E+02               0
GRID*               3122               0-1.126119946E-01-4.229993546E+00+
*       1.3451421817E+02               0
GRID*               3123               01.6016032861E+00-2.040468461E+00+
*       1.3354838401E+02               0
GRID*               3124               03.6536022844E+00-1.455199161E+00+
*       1.3574289485E+02               0
GRID*               3125               01.9393870037E+00-3.644724245E+00+
*       1.3670872901E+02               0
GRID*               3126               01.7951825838E+00-3.546989680E+00+
*       1.3423317860E+02               0
GRID*               3127               0-9.178269307E-02-5.735152674E+00+
*       1.4129309576E+02               0
GRID*               3128               01.7579695868E+00-5.148817939E+00+
*       1.4129309578E+02               0
GRID*               3129               0-9.171303740E-02-5.735149251E+00+
*       1.3928947874E+02               0
GRID*               3130               0-3.791475953E+006.5878436005E-02+
*       1.3413200534E+02               0
GRID*               3131               0-2.055297884E+007.0125786220E-02+
*       1.3166550476E+02               0
GRID*               3132               0-1.651291912E+00-3.175603625E-02+
*       1.3436933758E+02               0
GRID*               3133               0-2.284503837E+00-9.787466511E-01+
*       1.3568227893E+02               0
GRID*               3134               0-2.688509809E+00-8.768648287E-01+
*       1.3297844610E+02               0
GRID*               3135               0-5.483257679E-01-9.744993009E-01+
*       1.3321577835E+02               0
GRID*               3136               0-5.936866765E+00-5.239755503E-01+
*       1.4340683771E+02               0
GRID*               3137               0-5.350568735E+00-2.373670705E+00+
*       1.4539086584E+02               0
GRID*               3138               0-5.015199355E+00-3.596451942E+00+
*       1.4485481721E+02               0
GRID*               3139               0-5.601497385E+00-1.746756787E+00+
*       1.4287078908E+02               0
GRID*               3140               0-4.046073904E+00-1.931433127E+00+
*       1.4419424305E+02               0
GRID*               3141               0-1.808714169E+00-2.326060156E-01+
*       1.4353651282E+02               0
GRID*               3142               0-5.549964358E-01-1.805825665E+00+
*       1.4484229206E+02               0
GRID*               3143               0-2.189748585E+00-2.046184569E+00+
*       1.4223321821E+02               0
GRID*               3144               0-1.630070060E+00-2.466094981E-01+
*       1.4042547965E+02               0
GRID*               3145               04.6820888097E-03-6.250594634E-03+
*       1.4303455349E+02               0
GRID*               3146               0-3.763523272E-01-1.819829148E+00+
*       1.4173125889E+02               0
GRID*               3147               0-3.318258473E+00-4.886646979E+00+
*       1.4697434930E+02               0
GRID*               3148               0-3.447694947E+00-3.134535450E+00+
*       1.4577772649E+02               0
GRID*               3149               0-3.581268051E+00-4.906325893E+00+
*       1.4485481722E+02               0
GRID*               3150               0-4.701340346E+00-3.229956660E+00+
*       1.5088013511E+02               0
GRID*               3151               0-5.281593120E+00-1.482092861E+00+
*       1.5338013511E+02               0
GRID*               3152               0-4.645190781E+00-3.315214808E+00+
*       1.5338013511E+02               0
GRID*               3153               0-2.060358111E+00-3.367130377E+00+
*       1.4571812801E+02               0
GRID*               3154               0-2.193931214E+00-5.138920820E+00+
*       1.4479521874E+02               0
GRID*               3155               0-2.323367688E+00-3.386809291E+00+
*       1.4359859594E+02               0
GRID*               3156               0-5.467878282E+00-4.061320647E-01+
*       1.4150541136E+02               0
GRID*               3157               0-3.912454801E+00-5.908084047E-01+
*       1.4282886532E+02               0
GRID*               3158               0-3.577085421E+00-1.813589642E+00+
*       1.4229281669E+02               0
GRID*               3159               0-1.679323695E+00-1.553551824E+00+
*       1.4702142262E+02               0
GRID*               3160               0-1.942333272E+00-1.573230738E+00+
*       1.4490189054E+02               0
GRID*               3161               05.0102159250E+001.9968531822E-01+
*       5.9885035372E+01               0
GRID*               3162               04.4414549034E+002.0512282253E+00+
*       5.9885037410E+01               0
GRID*               3163               04.9187003670E+001.0937743343E+00+
*       5.6515160819E+01               0
GRID*               3164               02.4734538477E+009.5516264319E-01+
*       5.7611668810E+01               0
GRID*               3165               04.3499393454E+002.9453172413E+00+
*       5.6515162857E+01               0
GRID*               3166               02.9155828506E+004.2545188414E+00+
*       5.6515160930E+01               0
GRID*               3167               03.5124939763E+003.5423792675E+00+
*       5.7704718734E+01               0
GRID*               3168               02.0781374816E+004.8515808676E+00+
*       5.7704716807E+01               0
GRID*               3169               01.5444929206E+002.4463136854E+00+
*       5.5431350135E+01               0
GRID*               3170               05.3391005938E-021.7347182480E+00+
*       5.1609622925E+01               0
GRID*               3171               0-2.301850863E+004.3928636829E-01+
*       5.2117983730E+01               0
GRID*               3172               02.6696420559E-025.5381977947E-01+
*       5.4750155062E+01               0
GRID*               3173               0-7.840543631E-012.3317802742E+00+
*       5.2799178802E+01               0
GRID*               3174               0-8.107489485E-011.1508818056E+00+
*       5.5939710939E+01               0
GRID*               3175               01.0196612503E+004.6706823003E+00+
*       5.2857687138E+01               0
GRID*               3176               02.9154924008E+004.2545661299E+00+
*       5.2857685091E+01               0
GRID*               3177               02.0780470318E+004.8516281561E+00+
*       5.4047240968E+01               0
GRID*               3178               01.8221588130E-015.2677443265E+00+
*       5.4047243015E+01               0
GRID*               3179               01.1821197862E-01-3.402692366E-01+
*       5.8120029615E+01               0
GRID*               3180               01.6360084787E+001.5522246693E+00+
*       5.8801224687E+01               0
GRID*               3181               01.1872459684E+00-1.534142801E+00+
*       5.8445087423E+01               0
GRID*               3182               0-1.259511459E+00-1.935485665E+00+
*       5.5583573676E+01               0
GRID*               3183               01.0957304103E+00-6.400537848E-01+
*       5.5075212871E+01               0
GRID*               3184               0-1.295025724E-017.7567017179E-02+
*       6.1918663570E+01               0
GRID*               3185               0-1.208684325E+001.2983204296E+00+
*       6.2786253458E+01               0
GRID*               3186               01.4857876530E+001.2818270395E+00+
*       6.1849133251E+01               0
GRID*               3187               0-1.058463500E+001.5687180594E+00+
*       5.9738344894E+01               0
GRID*               3188               05.5682672592E-012.7729780817E+00+
*       5.9668814576E+01               0
GRID*               3189               05.7357142035E+00-3.509114576E-01+
*       1.4667477749E+02               0
GRID*               3190               05.3370125944E+00-2.244539151E+00+
*       1.4667477752E+02               0
GRID*               3191               05.7357227600E+00-3.509764623E-01+
*       1.4864905751E+02               0
GRID*               3192               03.7799325186E+00-2.405743573E+00+
*       1.2045099711E+02               0
GRID*               3193               02.4836676536E+00-7.888469221E-01+
*       1.1897645217E+02               0
GRID*               3194               05.3625621957E+00-1.834182161E+00+
*       1.1977139263E+02               0
GRID*               3195               04.0648568914E+00-3.841199967E+00+
*       1.1988954935E+02               0
GRID*               3196               01.1859623493E+00-2.795864728E+00+
*       1.1909460889E+02               0
GRID*               3197               02.7685920265E+00-2.224303316E+00+
*       1.1841500441E+02               0
GRID*               3198               0-3.450135406E-01-2.368859427E+00+
*       1.2336811596E+02               0
GRID*               3199               02.0527401735E+00-1.312168037E+00+
*       1.2372649893E+02               0
GRID*               3200               01.3239785698E+00-3.291343920E+00+
*       1.2375210999E+02               0
GRID*               3201               0-8.636858398E-02-2.854221822E+00+
*       1.2152489183E+02               0
GRID*               3202               06.4239301980E-01-8.750459387E-01+
*       1.2149928077E+02               0
GRID*               3203               02.3113851302E+00-1.797530432E+00+
*       1.2188327481E+02               0
GRID*               3204               0-1.103181695E+00-1.488063041E+00+
*       1.2186523039E+02               0
GRID*               3205               0-1.831943299E+00-3.467238924E+00+
*       1.2189084145E+02               0
GRID*               3206               0-8.445367383E-01-1.973425436E+00+
*       1.2002200626E+02               0
GRID*               3207               05.1902796723E+00-2.842865671E+00+
*       1.2267821526E+02               0
GRID*               3208               02.5963095031E+00-3.232986826E+00+
*       1.2132182704E+02               0
GRID*               3209               0-6.659224342E-01-9.851437875E-01+
*       1.1574162982E+02               0
GRID*               3210               07.3943587586E-01-2.257918660E-01+
*       1.1754567068E+02               0
GRID*               3211               0-5.043203336E-01-2.119760256E+00+
*       1.1785201578E+02               0
GRID*               3212               0-2.193959607E-01-3.555216650E+00+
*       1.1729056802E+02               0
GRID*               3213               01.0243602487E+00-1.661248260E+00+
*       1.1698422292E+02               0
GRID*               3214               0-2.500137288E-01-3.298520089E+00+
*       1.1534893020E+02               0
GRID*               3215               09.9374248069E-01-1.404551699E+00+
*       1.1504258510E+02               0
GRID*               3216               01.4402689542E+00-3.974624561E+00+
*       1.1659152331E+02               0
GRID*               3217               0-2.680309177E+00-4.769005588E+00+
*       1.1638897795E+02               0
GRID*               3218               0-9.900264937E-01-5.445110060E+00+
*       1.1763157105E+02               0
GRID*               3219               0-1.020644262E+00-5.188413500E+00+
*       1.1568993323E+02               0
GRID*               3220               0-2.262426978E+00-5.503431186E+00+
*       1.2231983229E+02               0
GRID*               3221               0-3.668650104E-01-5.920143550E+00+
*       1.2231983250E+02               0
GRID*               3222               0-9.900960448E-01-5.445074091E+00+
*       1.1988954935E+02               0
GRID*               3223               01.9855578891E-01-4.289678216E+00+
*       1.2096344407E+02               0
GRID*               3224               09.0546592286E-01-5.861786456E+00+
*       1.1988954956E+02               0
GRID*               3225               02.5970482481E+003.2259922867E+00+
*       4.2146832555E+01               0
GRID*               3226               04.0314675933E+001.9168898604E+00+
*       4.2146834533E+01               0
GRID*               3227               04.3587556697E+003.0055184000E+00+
*       4.5671334319E+01               0
GRID*               3228               02.9243363246E+004.3146208263E+00+
*       4.5671332341E+01               0
GRID*               3229               02.0725322519E+008.8063123728E-01+
*       4.3875764493E+01               0
GRID*               3230               01.1153683676E+007.0298851396E-01+
*       1.1962322117E+02               0
GRID*               3231               0-2.908089633E+00-1.921441586E+00+
*       1.1748703924E+02               0
GRID*               3232               0-2.508395257E+00-3.341920752E-01+
*       1.1705105936E+02               0
GRID*               3233               0-3.506806247E+006.2347851612E-01+
*       1.1849012369E+02               0
GRID*               3234               0-1.502731323E+00-1.162089664E+00+
*       1.1929108011E+02               0
GRID*               3235               0-1.103036947E+004.2515984638E-01+
*       1.1885510023E+02               0
GRID*               3236               0-2.249895048E+00-2.732777358E+00+
*       1.1821796540E+02               0
GRID*               3237               0-5.596123654E-01-3.408881830E+00+
*       1.1946055850E+02               0
GRID*               3238               02.3014880041E+00-5.962235652E-01+
*       1.2099918736E+02               0
GRID*               3239               02.0428430474E+00-1.108611697E-01+
*       1.2284241149E+02               0
GRID*               3240               02.5158183952E+001.4671732830E+00+
*       1.2096635188E+02               0
GRID*               3241               08.5672341096E-011.1883509094E+00+
*       1.2146644529E+02               0
GRID*               3242               03.8805812779E+00-4.276933698E+00+
*       1.2267821550E+02               0
GRID*               3243               02.7551584971E+00-5.275267994E+00+
*       1.1988954958E+02               0
GRID*               3244               05.5788450531E+002.5202892994E-01+
*       1.2397925039E+02               0
GRID*               3245               05.1803825462E+00-1.641558804E+00+
*       1.2179412782E+02               0
GRID*               3246               05.5887421792E+00-9.492779371E-01+
*       1.2486333784E+02               0
GRID*               3247               03.7118351578E+00-1.033345663E+00+
*       1.2322640552E+02               0
GRID*               3248               05.5382716259E+003.0568282295E-01+
*       1.2580514945E+02               0
GRID*               3249               03.6613646044E+002.2161509684E-01+
*       1.2416821713E+02               0
GRID*               3250               03.6712617305E+00-9.796917702E-01+
*       1.2505230458E+02               0
GRID*               3251               04.2452015456E-01-2.312544690E+00+
*       1.2572934890E+02               0
GRID*               3252               01.8565381439E+00-1.265301978E+00+
*       1.2584508179E+02               0
GRID*               3253               01.8973102353E+00-3.188163124E+00+
*       1.2823192579E+02               0
GRID*               3254               02.0935122649E+00-3.235029183E+00+
*       1.2611334293E+02               0
GRID*               3255               03.5255302543E+00-2.187786471E+00+
*       1.2622907582E+02               0
GRID*               3256               04.9940429234E+00-2.796066735E+00+
*       1.2698192086E+02               0
GRID*               3257               03.4750597009E+00-9.328257110E-01+
*       1.2717088744E+02               0
GRID*               3258               05.1397743997E+00-1.587972034E+00+
*       1.2580514961E+02               0
GRID*               3259               05.1902449530E+00-2.842932794E+00+
*       1.2486333800E+02               0
GRID*               3260               0-3.042414492E-01-4.291720573E+00+
*       1.2575495995E+02               0
GRID*               3261               0-1.264639048E+001.5597763146E+00+
*       1.1674471426E+02               0
GRID*               3262               0-1.872156815E-012.5186348692E+00+
*       1.1480671899E+02               0
GRID*               3263               0-2.029688504E+003.1695865815E+00+
*       1.1611614854E+02               0
GRID*               3264               0-8.887065558E-012.4885566945E+00+
*       1.1882226475E+02               0
GRID*               3265               03.8841176812E+00-2.466215312E-02+
*       1.2031958288E+02               0
GRID*               3266               0-4.882969465E+002.8309034194E+00+
*       1.1965004069E+02               0
GRID*               3267               0-3.573341314E+004.2649256493E+00+
*       1.1739206272E+02               0
GRID*               3268               0-4.329670367E+003.6949759949E+00+
*       1.2034059988E+02               0
GRID*               3269               0-2.553812772E+003.0748006025E+00+
*       1.1874470300E+02               0
GRID*               3270               0-3.020042216E+005.1289982248E+00+
*       1.1808262191E+02               0
GRID*               3271               04.0251140525E-01-5.863837169E+00+
*       1.2898981942E+02               0
GRID*               3272               02.2522292979E+00-5.277396142E+00+
*       1.2898981945E+02               0
GRID*               3273               04.0258845475E-01-5.863833113E+00+
*       1.2686618809E+02               0
GRID*               3274               0-3.278214275E+004.3524212166E+00+
*       1.2150840452E+02               0
GRID*               3275               0-4.587912670E+002.9183531895E+00+
*       1.2150840429E+02               0
GRID*               3276               0-3.019971973E+005.1290440220E+00+
*       1.2034060011E+02               0
GRID*               3277               0-2.258755976E+003.1622503726E+00+
*       1.2060306659E+02               0
GRID*               3278               0-2.495917948E+005.2237842038E+00+
*       1.1545406745E+02               0
GRID*               3279               0-2.073696501E-015.6818716260E+00+
*       1.2246094213E+02               0
GRID*               3280               0-2.057062224E+005.0953531640E+00+
*       1.2246094215E+02               0
GRID*               3281               0-1.170279399E+005.7155624841E+00+
*       1.2034060009E+02               0
GRID*               3282               0-1.037603925E+003.9051823200E+00+
*       1.2155560423E+02               0
GRID*               3283               04.4947127419E+00-3.118833603E+00+
*       7.4635776786E+01               0
GRID*               3284               02.5977023739E+00-1.129496582E+00+
*       7.5670216888E+01               0
GRID*               3285               04.7625790000E+00-1.460268600E+00+
*       7.3652166988E+01               0
GRID*               3286               03.1818853431E+00-3.509456743E+00+
*       7.3078492907E+01               0
GRID*               3287               01.0170087171E+00-3.178684725E+00+
*       7.5096542807E+01               0
GRID*               3288               01.2848749751E+00-1.520119722E+00+
*       7.4112933009E+01               0
GRID*               3289               05.5660797202E+001.5321644726E+00+
*       2.3481942654E+02               0
GRID*               3290               05.5660964752E+001.5320371593E+00+
*       2.3700871856E+02               0
GRID*               3291               04.9564942068E+003.3685279973E+00+
*       2.3700871925E+02               0
GRID*               3292               0-4.405488082E+00-2.448679519E+00+
*       7.1451672397E+01               0
GRID*               3293               0-2.147240392E+00-4.577645415E-01+
*       7.4091956899E+01               0
GRID*               3294               0-4.059961760E+00-2.050052721E+00+
*       7.5258014557E+01               0
GRID*               3295               0-3.307014066E+00-3.805137782E+00+
*       7.3078494492E+01               0
GRID*               3296               0-1.394292698E+00-2.212849602E+00+
*       7.1912436834E+01               0
GRID*               3297               0-1.048766376E+00-1.814222804E+00+
*       7.5718778993E+01               0
GRID*               3298               05.3192728082E-012.3496533897E-01+
*       7.6292453074E+01               0
GRID*               3299               01.8640095919E-01-1.636614590E-01+
*       7.2486110914E+01               0
GRID*               3300               05.5505437622E+003.9522193363E-01+
*       2.3615718577E+02               0
GRID*               3301               05.2090687022E+00-1.507850147E+00+
*       2.3396789400E+02               0
GRID*               3302               05.2090095076E+00-1.507971999E+00+
*       2.3615718595E+02               0
GRID*               3303               03.8108407201E-011.7643776835E+00+
*       7.4329054883E+01               0
GRID*               3304               0-2.298083601E+001.0716478030E+00+
*       7.2128558708E+01               0
GRID*               3305               0-1.952557279E+001.4702746010E+00+
*       7.5934900868E+01               0
GRID*               3306               0-2.625753706E+00-3.359314893E+00+
*       7.8494530963E+01               0
GRID*               3307               0-7.300373287E-01-3.775650158E+00+
*       7.8494532356E+01               0
GRID*               3308               0-1.872806012E+00-5.114399954E+00+
*       7.6315010898E+01               0
GRID*               3309               02.2910365563E-02-5.530735218E+00+
*       7.6315012291E+01               0
GRID*               3310               02.6406102279E-01-1.423599665E+00+
*       7.7276062873E+01               0
GRID*               3311               01.3357377643E+00-5.140112079E+00+
*       7.7872296170E+01               0
GRID*               3312               0-1.956195262E+00-4.825381651E+00+
*       7.0119789581E+01               0
GRID*               3313               0-1.477775808E+00-1.923782637E+00+
*       6.8953733508E+01               0
GRID*               3314               0-2.971186167E+00-3.757990354E+00+
*       7.1451670813E+01               0
GRID*               3315               0-1.872712151E+00-5.114448616E+00+
*       7.3078492907E+01               0
GRID*               3316               0-3.793017925E-01-3.280240899E+00+
*       7.0580555602E+01               0
GRID*               3317               0-3.419531222E+00-3.347282331E+00+
*       1.3745599393E+02               0
GRID*               3318               0-1.955167289E+00-2.007009245E+00+
*       1.3866932297E+02               0
GRID*               3319               0-1.987228529E+00-5.318288189E+00+
*       1.3928947874E+02               0
GRID*               3320               0-1.710000019E+00-5.493144693E+00+
*       1.3753295914E+02               0
GRID*               3321               0-1.677938778E+00-2.181865749E+00+
*       1.3691280337E+02               0
GRID*               3322               0-2.456360856E-01-4.152871607E+00+
*       1.3874628818E+02               0
GRID*               3323               05.5505270072E+003.9534924690E-01+
*       2.3396789375E+02               0
GRID*               3324               03.6865569085E+001.3961891230E+00+
*       2.3537080521E+02               0
GRID*               3325               04.9408549579E+002.2318380849E+00+
*       2.3396789492E+02               0
GRID*               3326               04.9564076709E+003.3686533106E+00+
*       2.3481942771E+02               0
GRID*               3327               03.4885919060E+004.6400687787E+00+
*       2.3481942679E+02               0
GRID*               3328               04.0829015857E+003.1329270582E+00+
*       2.3236388942E+02               0
GRID*               3329               02.6150858208E+004.4043425264E+00+
*       2.3236388849E+02               0
GRID*               3330               03.6748638157E+002.6061849264E-01+
*       2.3668176546E+02               0
GRID*               3331               05.5544033824E+003.9646652895E-01+
*       2.3831967881E+02               0
GRID*               3332               03.6904165287E+001.3974337183E+00+
*       2.3753329825E+02               0
GRID*               3333               01.4836936463E+002.2181463401E+00+
*       2.3759038549E+02               0
GRID*               3334               01.5170119807E+003.7393401317E+00+
*       2.3825217327E+02               0
GRID*               3335               03.7120417703E+001.7830568796E+00+
*       2.3950604627E+02               0
GRID*               3336               01.4953867391E+003.3537169705E+00+
*       2.3627942524E+02               0
GRID*               3337               03.7237348631E+002.9186275100E+00+
*       2.3819508602E+02               0
GRID*               3338               04.9781194484E+003.7541511586E+00+
*       2.3898146727E+02               0
GRID*               3339               03.5103389996E+005.0256327454E+00+
*       2.3898146676E+02               0
GRID*               3340               03.4887137579E+004.6400095842E+00+
*       2.3700871874E+02               0
GRID*               3341               02.2615132024E+00-5.164679747E+00+
*       7.6577257341E+00               0
GRID*               3342               04.1211478100E-01-5.752133981E+00+
*       7.6577257450E+00               0
GRID*               3343               0-3.300423822E-01-5.410447601E+00+
*       9.9047845737E+00               0
GRID*               3344               01.5193560392E+00-4.822993367E+00+
*       9.9047845628E+00               0
GRID*               3345               0-2.617602261E-01-3.670493126E+00+
*       8.9824449009E+00               0
GRID*               3346               0-2.439401181E+00-2.036050292E+00+
*       9.4685720594E+00               0
GRID*               3347               0-1.697244018E+00-2.377736672E+00+
*       7.2215132308E+00               0
GRID*               3348               0-2.021932774E+00-2.336674252E-01+
*       7.6789863176E+00               0
GRID*               3349               0-5.864489819E-01-1.526423880E+00+
*       9.4399179877E+00               0
GRID*               3350               01.5570818123E-01-1.868110259E+00+
*       7.1928591591E+00               0
GRID*               3351               0-3.660626908E+00-3.685600000E+00+
*       1.2650939475E+01               0
GRID*               3352               0-2.233448389E+00-1.895629372E+00+
*       1.1374832662E+01               0
GRID*               3353               0-4.890157907E+00-2.252422626E+00+
*       1.2796268408E+01               0
GRID*               3354               0-3.435984660E+00-3.526361596E+00+
*       1.5764872055E+01               0
GRID*               3355               0-7.792751419E-01-3.169568342E+00+
*       1.4343436309E+01               0
GRID*               3356               0-2.008806142E+00-1.736390968E+00+
*       1.4488765242E+01               0
GRID*               3357               0-4.890079688E+00-2.252540733E+00+
*       1.0050113496E+01               0
GRID*               3358               0-3.660548688E+00-3.685718107E+00+
*       9.9047845628E+00               0
GRID*               3359               0-5.096032480E+00-2.392961653E+00+
*       8.1438528926E+00               0
GRID*               3360               0-3.668932181E+00-6.028729178E-01+
*       9.6139009922E+00               0
GRID*               3361               0-2.225886773E+00-4.994651942E+00+
*       1.2650940104E+01               0
GRID*               3362               0-2.001244525E+00-4.835413538E+00+
*       1.5764872684E+01               0
GRID*               3363               03.3608101456E+001.3065515952E+00+
*       1.3327346960E+02               0
GRID*               3364               03.5279516267E+001.3422710242E+00+
*       1.3114493132E+02               0
GRID*               3365               03.6271644680E+008.7041487669E-02+
*       1.3292956200E+02               0
GRID*               3366               01.7724545721E+001.1906686319E-02+
*       1.3348046864E+02               0
GRID*               3367               01.6732417309E+001.2671362229E+00+
*       1.3169583796E+02               0
GRID*               3368               01.9395960533E+004.7626115318E-02+
*       1.3135193037E+02               0
GRID*               3369               01.6097302856E+003.5017857119E+00+
*       1.2834225753E+02               0
GRID*               3370               03.3662962898E+002.5348576142E+00+
*       1.2979547118E+02               0
GRID*               3371               01.5050313002E+003.5287092294E+00+
*       1.3003562527E+02               0
GRID*               3372               0-1.242999930E-012.2433728165E+00+
*       1.2830398379E+02               0
GRID*               3373               01.7369649966E+001.2495212014E+00+
*       1.2806382969E+02               0
GRID*               3374               01.6322660111E+001.2764447189E+00+
*       1.2975719744E+02               0
GRID*               3375               05.4633828787E+001.4219454542E+00+
*       1.2898277448E+02               0
GRID*               3376               03.6326506122E+001.3153475067E+00+
*       1.2945156358E+02               0
GRID*               3377               05.6250382157E+002.2935886412E-01+
*       1.3033223463E+02               0
GRID*               3378               05.3586838933E+001.4488689717E+00+
*       1.3067614223E+02               0
GRID*               3379               04.7905322770E+003.3004113876E+00+
*       1.3274926611E+02               0
GRID*               3380               03.4207751821E+002.9878420211E+00+
*       1.3402100980E+02               0
GRID*               3381               03.3565333066E+004.6102030800E+00+
*       1.3274926606E+02               0
GRID*               3382               01.5999041629E+005.5771638529E+00+
*       1.2922292872E+02               0
GRID*               3383               03.4611691525E+004.5833122377E+00+
*       1.2898277462E+02               0
GRID*               3384               03.3564701671E+004.6102357552E+00+
*       1.3067614236E+02               0
GRID*               3385               0-5.756538985E+00-5.766438524E-02+
*       -9.670094486E-01               0
GRID*               3386               0-5.366717152E+00-1.822408048E+00+
*       -3.467009449E+00               0
GRID*               3387               0-5.885506856E+001.1446484138E-01+
*       -3.467009449E+00               0
GRID*               3388               0-4.888984291E+00-2.462328416E+00+
*       1.8034184475E+00               0
GRID*               3389               0-2.988122515E+00-4.086680649E+00+
*       1.0442217081E+00               0
GRID*               3390               0-3.810061905E+00-2.369617249E+00+
*       5.2342716981E-01               0
GRID*               3391               07.8876451879E-01-6.048180252E+00+
*       -2.500000000E+00               0
GRID*               3392               01.1491907079E+00-3.022918246E+00+
*       -3.517697139E+00               0
GRID*               3393               07.0468464233E-01-4.466802253E+00+
*       -1.017697139E+00               0
GRID*               3394               02.0116248074E+00-5.064095050E+00+
*       -9.432795578E-01               0
GRID*               3395               02.4561308729E+00-3.620211043E+00+
*       -3.443279558E+00               0
GRID*               3396               02.3720509965E+00-2.038833044E+00+
*       -1.960976697E+00               0
GRID*               3397               0-3.552047904E-01-2.749600477E+00+
*       -1.969857632E+00               0
GRID*               3398               0-7.156309795E-01-5.774862483E+00+
*       -9.521604934E-01               0
GRID*               3399               03.4247980793E-01-5.811219702E+00+
*       1.0442217081E+00               0
GRID*               3400               0-7.174096248E-01-4.094017926E+00+
*       9.2061214722E-02               0
GRID*               3401               0-1.815001482E+00-3.028558461E-01+
*       5.6285845704E+00               0
GRID*               3402               05.4044160748E-016.1837918667E-03+
*       5.3723026870E+00               0
GRID*               3403               02.2661558860E+00-2.466835006E+00+
*       1.5966666084E+00               0
GRID*               3404               02.6283607204E+00-1.122417556E+00+
*       -4.652522384E-01               0
GRID*               3405               0-4.046233303E+00-4.050323430E+00+
*       -9.521604934E-01               0
GRID*               3406               0-1.539349014E+00-2.376954526E+00+
*       -4.287333235E-01               0
GRID*               3407               01.5349332651E+002.4937746649E-01+
*       -2.001272657E+00               0
GRID*               3408               03.5078904151E-016.2202341753E-01+
*       -4.601483484E-01               0
GRID*               3409               05.0720429139E+00-2.005735855E+00+
*       5.1349228014E+00               0
GRID*               3410               05.4261539211E+00-2.125381910E+00+
*       2.5803674480E+00               0
GRID*               3411               0-1.942558814E+00-2.070424731E+00+
*       2.4466401902E+02               0
GRID*               3412               0-3.915923982E-02-1.776769322E+00+
*       2.4322163175E+02               0
GRID*               3413               0-2.078973252E+00-3.753068201E-01+
*       2.4325000827E+02               0
GRID*               3414               0-2.010205927E+00-2.678555525E-01+
*       2.4509946761E+02               0
GRID*               3415               02.9608084949E-02-1.669318054E+00+
*       2.4507109109E+02               0
GRID*               3416               0-1.068063531E-012.5799856955E-02+
*       2.4365708034E+02               0
GRID*               3417               03.9054964414E+001.8371545674E+00+
*       2.4136707636E+02               0
GRID*               3418               03.8721781070E+003.1596077579E-01+
*       2.4070528859E+02               0
GRID*               3419               01.9450295501E+001.4420352649E-01+
*       2.4218696984E+02               0
GRID*               3420               01.7848932134E+001.6112996303E+00+
*       2.4098772753E+02               0
GRID*               3421               01.7515748790E+009.0105838656E-02+
*       2.4032593975E+02               0
GRID*               3422               01.7333949383E+00-1.944378494E+00+
*       2.3964971611E+02               0
GRID*               3423               01.7911775895E+00-3.158263021E+00+
*       2.4052133794E+02               0
GRID*               3424               03.7365060871E+00-9.520214392E-01+
*       2.3971588032E+02               0
GRID*               3425               0-1.937536186E-01-2.116135743E+00+
*       2.4113139737E+02               0
GRID*               3426               01.8093575303E+00-1.123778688E+00+
*       2.4119756157E+02               0
GRID*               3427               0-5.006346762E+001.5574660082E+00+
*       2.2254758798E+02               0
GRID*               3428               0-2.023300730E+001.7016337959E+00+
*       2.2088723022E+02               0
GRID*               3429               0-3.764345565E+003.4187099362E+00+
*       2.2209462501E+02               0
GRID*               3430               0-4.198138191E+002.4082470878E+00+
*       2.2379276431E+02               0
GRID*               3431               0-2.457093356E+006.9117094748E-01+
*       2.2258536953E+02               0
GRID*               3432               0-1.215092159E+002.5524148755E+00+
*       2.2213240655E+02               0
GRID*               3433               0-5.770454043E+00-6.478999491E-02+
*       1.1517988030E+02               0
GRID*               3434               0-5.770449203E+00-6.487773839E-02+
*       1.1283734251E+02               0
GRID*               3435               0-5.353819577E+001.8307139507E+00+
*       1.1283734209E+02               0
GRID*               3436               0-2.440832789E+00-1.420873759E+00+
*       2.2591813991E+02               0
GRID*               3437               0-4.875463781E+001.6595385537E+00+
*       2.2528575634E+02               0
GRID*               3438               0-3.134418946E+00-5.753758664E-02+
*       2.2407836156E+02               0
GRID*               3439               0-2.326210375E+007.9324349298E-01+
*       2.2532353789E+02               0
GRID*               3440               0-1.400875915E+001.5328699345E+00+
*       2.5405193815E+02               0
GRID*               3441               03.3006911670E-012.3464813585E+00+
*       2.5405193913E+02               0
GRID*               3442               0-6.838605729E-022.4996871030E+00+
*       2.5660261774E+02               0
GRID*               3443               0-1.799331089E+001.6860756790E+00+
*       2.5660261676E+02               0
GRID*               3444               04.9590462454E-01-1.483401528E-01+
*       2.5572783929E+02               0
GRID*               3445               05.6595277053E-016.3175724372E-01+
*       2.2414837240E+02               0
GRID*               3446               0-1.763507199E+00-6.721652253E-01+
*       2.2442514788E+02               0
GRID*               3447               05.5382808297E+003.0561290071E-01+
*       1.2792878086E+02               0
GRID*               3448               05.3925493534E+00-9.024818002E-01+
*       1.2910555211E+02               0
GRID*               3449               02.3411348192E-01-2.122148765E+00+
*       1.2807087442E+02               0
GRID*               3450               01.6661314713E+00-1.074906053E+00+
*       1.2818660732E+02               0
GRID*               3451               01.9334139053E-01-1.992876186E-01+
*       1.2568403043E+02               0
GRID*               3452               05.2264981639E+00-1.664291057E+00+
*       1.3033223477E+02               0
GRID*               3453               04.9940093017E+00-2.796131721E+00+
*       1.2910555225E+02               0
GRID*               3454               03.5618170869E+00-1.009079748E+00+
*       1.2957434121E+02               0
GRID*               3455               02.0022696202E+00-5.720727670E-02+
*       1.2466831055E+02               0
GRID*               3456               02.0245123315E+00-3.339309547E+00+
*       1.3002987440E+02               0
GRID*               3457               03.8114493835E+00-4.381299853E+00+
*       1.3090350095E+02               0
GRID*               3458               03.6842472873E+00-4.230153430E+00+
*       1.2910555234E+02               0
GRID*               3459               03.4565303209E+00-2.292066835E+00+
*       1.3014560730E+02               0
GRID*               3460               01.6572040101E+00-1.440218850E-01+
*       6.9321663767E+00               0
GRID*               3461               04.3174968520E-011.8791538544E+00+
*       4.8992640596E+00               0
GRID*               3462               02.2579342699E+001.4591729824E+00+
*       4.1810981904E+00               0
GRID*               3463               05.2543306552E+001.6197648606E+00+
*       2.5803673618E+00               0
GRID*               3464               04.9002196480E+001.7394109150E+00+
*       5.1349227152E+00               0
GRID*               3465               0-9.387091391E-013.3666675813E+00+
*       1.3428131963E-01               0
GRID*               3466               0-9.734433238E-013.2216575620E+00+
*       1.7693435080E+00               0
GRID*               3467               0-2.944632408E+003.1059764214E+00+
*       -2.445710457E-01               0
GRID*               3468               0-2.106537919E+001.2773690479E+00+
*       -4.163894472E-01               0
GRID*               3469               0-2.141272104E+001.1323590286E+00+
*       1.2186727412E+00               0
GRID*               3470               02.1952837907E+00-1.125286338E-01+
*       1.3962413182E+02               0
GRID*               3471               01.8216745921E+001.5533990771E-02+
*       1.3749081030E+02               0
GRID*               3472               03.8336321854E+00-7.674056595E-02+
*       1.3719142180E+02               0
GRID*               3473               04.0272114830E+00-1.583261785E+00+
*       1.3787621638E+02               0
GRID*               3474               02.0152538897E+00-1.490987228E+00+
*       1.3817560488E+02               0
GRID*               3475               05.8315237300E+006.5441605622E-02+
*       1.3870044643E+02               0
GRID*               3476               05.4579145314E+001.9350423024E-01+
*       1.3656712490E+02               0
GRID*               3477               05.6514938290E+00-1.313016989E+00+
*       1.3725191948E+02               0
GRID*               3478               05.1211787227E+00-2.947341284E+00+
*       1.3297662456E+02               0
GRID*               3479               03.8113870303E+00-4.381340254E+00+
*       1.3297662460E+02               0
GRID*               3480               03.9431116128E+00-4.640593815E+00+
*       1.3521869137E+02               0
GRID*               3481               05.2529033051E+00-3.206594844E+00+
*       1.3521869132E+02               0
GRID*               3482               03.7154569996E+00-2.702466819E+00+
*       1.3418562267E+02               0
GRID*               3483               01.6634580013E+00-3.287736119E+00+
*       1.3199111183E+02               0
GRID*               3484               03.5218777020E+00-1.195945600E+00+
*       1.3350082809E+02               0
GRID*               3485               01.4326452871E-01-2.496810068E+00+
*       2.7446253415E+02               0
GRID*               3486               01.8746611620E+00-1.682794261E+00+
*       2.7446253183E+02               0
GRID*               3487               01.8746111512E+00-1.682849189E+00+
*       2.7103768322E+02               0
GRID*               3488               02.0352566978E+00-5.323636676E+00+
*       1.3753295916E+02               0
GRID*               3489               01.9570791884E+00-3.318270262E+00+
*       1.3866422084E+02               0
GRID*               3490               03.9607434609E+00-4.314178827E+00+
*       1.3920741141E+02               0
GRID*               3491               03.9430512762E+00-4.640632810E+00+
*       1.3725191958E+02               0
GRID*               3492               03.8648737668E+00-2.635266397E+00+
*       1.3838318127E+02               0
GRID*               3493               01.6523004074E+005.1842269119E+00+
*       1.4527697505E+02               0
GRID*               3494               01.5793294311E+003.3009234555E+00+
*       1.4442759863E+02               0
GRID*               3495               03.3788606009E+004.7751339662E+00+
*       1.4520206360E+02               0
GRID*               3496               03.2486759188E+005.2264465679E+00+
*       1.4702098175E+02               0
GRID*               3497               01.4491447490E+003.7522360572E+00+
*       1.4624651678E+02               0
GRID*               3498               03.1757049425E+003.3431431114E+00+
*       1.4617160532E+02               0
GRID*               3499               05.1676757581E+001.5006675631E+00+
*       1.4864905751E+02               0
GRID*               3500               03.4238807344E+001.9649003684E-01+
*       1.4867118247E+02               0
GRID*               3501               04.5759687262E+002.7344043242E+00+
*       1.5002212496E+02               0
GRID*               3502               04.6826420052E+003.9165187818E+00+
*       1.4899526173E+02               0
GRID*               3503               03.5305540133E+001.3786044944E+00+
*       1.4764431924E+02               0
GRID*               3504               02.9388469814E+002.6123412555E+00+
*       1.4901738669E+02               0
GRID*               3505               03.1420610917E+004.0443018264E+00+
*       1.5002212496E+02               0
GRID*               3506               03.2487343707E+005.2264162840E+00+
*       1.4899526173E+02               0
GRID*               3507               09.9977214182E-012.7267234916E+00+
*       1.4980569689E+02               0
GRID*               3508               01.3096595311E+005.3407985201E+00+
*       1.4978357193E+02               0
GRID*               3509               01.1064454208E+003.9088379492E+00+
*       1.4877883367E+02               0
GRID*               3510               0-6.237619603E+00-3.851937297E-01+
*       2.4800926435E+02               0
GRID*               3511               0-5.870644321E+001.5208108524E+00+
*       2.4800926431E+02               0
GRID*               3512               0-4.365869627E+009.6876199172E-01+
*       2.4869847369E+02               0
GRID*               3513               0-5.608995889E+008.1771635248E-01+
*       2.4670773803E+02               0
GRID*               3514               0-5.242020608E+002.7237209346E+00+
*       2.4670773800E+02               0
GRID*               3515               0-1.688170345E+00-1.850134256E+00+
*       2.6742104647E+02               0
GRID*               3516               01.1129526380E-01-2.498251980E+00+
*       2.6742104842E+02               0
GRID*               3517               01.1117150270E-01-2.498261305E+00+
*       2.6365639411E+02               0
GRID*               3518               0-5.241968924E+002.7238273864E+00+
*       2.4869847369E+02               0
GRID*               3519               0-4.488433083E+00-4.515551600E-01+
*       2.4734619777E+02               0
GRID*               3520               0-5.731559345E+00-6.026007993E-01+
*       2.4535546212E+02               0
GRID*               3521               0-3.859809370E+007.5135492215E-01+
*       2.4604467146E+02               0
GRID*               3522               0-4.246217527E+003.2328855103E+00+
*       2.4487477191E+02               0
GRID*               3523               0-2.974623386E+004.7005925117E+00+
*       2.4487477196E+02               0
GRID*               3524               0-3.970426467E+004.1914279360E+00+
*       2.4670773805E+02               0
GRID*               3525               0-2.741442833E+002.6808366496E+00+
*       2.4556398128E+02               0
GRID*               3526               0-3.949881554E+004.7892057016E+00+
*       2.4800926436E+02               0
GRID*               3527               0-3.716701001E+002.7694498395E+00+
*       2.4869847369E+02               0
GRID*               3528               0-2.960479014E+00-1.095424374E-01+
*       2.4934736565E+02               0
GRID*               3529               0-2.454418757E+00-3.269495070E-01+
*       2.4669356342E+02               0
GRID*               3530               0-2.331855301E+001.0933676447E+00+
*       2.4804583933E+02               0
GRID*               3531               04.4893518611E+00-3.035758193E+00+
*       1.6825890972E+02               0
GRID*               3532               03.2186667117E+00-4.504389124E+00+
*       1.6825890741E+02               0
GRID*               3533               02.7129528645E+00-4.437438415E+00+
*       1.7090852312E+02               0
GRID*               3534               03.9836380139E+00-2.968807484E+00+
*       1.7090852543E+02               0
GRID*               3535               01.7239823395E+00-2.733356447E+00+
*       1.6997882586E+02               0
GRID*               3536               01.5012187098E-01-1.944564985E+00+
*       1.6751458207E+02               0
GRID*               3537               02.2766046925E+00-9.174137916E-01+
*       1.6959919199E+02               0
GRID*               3538               01.9703037678E-01-6.167162012E-02+
*       1.6978456391E+02               0
GRID*               3539               0-3.555919762E-01-1.877614276E+00+
*       1.7016419778E+02               0
GRID*               3540               01.7708908453E+00-8.504630825E-01+
*       1.7224880770E+02               0
GRID*               3541               0-6.840381062E-022.4996863963E+00+
*       2.6002624094E+02               0
GRID*               3542               0-2.913946215E+00-3.592440943E+00+
*       1.7132232308E+02               0
GRID*               3543               0-2.914286152E+00-3.592276088E+00+
*       1.7474210410E+02               0
GRID*               3544               0-1.026810305E+00-4.707541782E+00+
*       1.7432830645E+02               0
GRID*               3545               0-1.026470369E+00-4.707706637E+00+
*       1.7090852543E+02               0
GRID*               3546               0-6.692073542E-01-1.551140044E+00+
*       1.7304223922E+02               0
GRID*               3547               01.7027912504E+00-1.159448274E+00+
*       1.7572479646E+02               0
GRID*               3548               0-1.846845961E-01-4.418257947E-02+
*       1.7613859411E+02               0
GRID*               3549               0-1.367028554E+00-1.886648783E+00+
*       1.7612251733E+02               0
GRID*               3550               05.2044729212E-01-3.001914477E+00+
*       1.7570871968E+02               0
GRID*               3551               01.0049700502E+00-1.494957013E+00+
*       1.7880507457E+02               0
GRID*               3552               0-1.724631505E+00-5.043050522E+00+
*       1.7740858456E+02               0
GRID*               3553               02.0552894900E-02-5.032319157E+00+
*       2.1253887099E+02               0
GRID*               3554               0-1.885727208E+00-4.665880238E+00+
*       2.1253886708E+02               0
GRID*               3555               0-1.742114142E+00-4.971584156E+00+
*       2.1415459436E+02               0
GRID*               3556               01.6416596114E-01-5.338023075E+00+
*       2.1415459827E+02               0
GRID*               3557               0-3.538830778E-01-2.889789580E+00+
*       2.1430981136E+02               0
GRID*               3558               01.8540297094E+00-4.396960983E+00+
*       2.1253887099E+02               0
GRID*               3559               01.9976427757E+00-4.702664900E+00+
*       2.1415459827E+02               0
GRID*               3560               0-3.353666223E+00-3.394820613E+00+
*       2.1253887099E+02               0
GRID*               3561               0-3.210053157E+00-3.700524530E+00+
*       2.1415459827E+02               0
GRID*               3562               0-1.443315768E+001.1140234019E+00+
*       2.4049772723E+02               0
GRID*               3563               0-1.103598932E+00-1.582982011E+00+
*       2.4009380300E+02               0
GRID*               3564               0-6.835701492E-014.2203824506E+00+
*       2.3818863337E+02               0
GRID*               3565               01.5114596404E+002.2640991985E+00+
*       2.3944250638E+02               0
GRID*               3566               01.5447779748E+003.7852929901E+00+
*       2.4010429416E+02               0
GRID*               3567               02.2955008940E+00-1.834135420E+00+
*       2.5158858034E+02               0
GRID*               3568               05.6391866663E-01-2.648038520E+00+
*       2.5405193815E+02               0
GRID*               3569               02.2955038225E+00-1.834132202E+00+
*       2.5405193919E+02               0
GRID*               3570               0-1.786496251E+001.8855589548E+00+
*       1.4091662792E+02               0
GRID*               3571               0-2.084223578E+005.2818140345E+00+
*       1.3949098330E+02               0
GRID*               3572               0-4.041213466E+004.3940994667E+00+
*       1.4071310819E+02               0
GRID*               3573               0-3.743486139E+009.9784438694E-01+
*       1.4213875281E+02               0
GRID*               3574               0-2.086516073E+003.3563682608E+00+
*       1.4212794176E+02               0
GRID*               3575               0-2.429927901E+005.2386070505E+00+
*       2.3891792738E+02               0
GRID*               3576               0-2.429812542E+005.2386863845E+00+
*       2.4100658496E+02               0
GRID*               3577               0-3.457439393E+004.2603678373E+00+
*       2.4058012456E+02               0
GRID*               3578               0-3.457554752E+004.2602885033E+00+
*       2.3849146698E+02               0
GRID*               3579               0-1.683431006E+003.2880167617E+00+
*       2.3961429387E+02               0
GRID*               3580               0-2.374741546E+002.3580124099E+00+
*       2.3638522441E+02               0
GRID*               3581               0-3.432036886E+001.2237465907E+00+
*       2.3754570039E+02               0
GRID*               3582               0-5.450015367E+001.7065564307E+00+
*       2.3684933339E+02               0
GRID*               3583               0-4.392720027E+002.8408222499E+00+
*       2.3568885741E+02               0
GRID*               3584               0-4.729036339E+002.7925080544E+00+
*       2.3849146647E+02               0
GRID*               3585               08.1147876403E-01-2.359983332E+00+
*       1.5415099180E+02               0
GRID*               3586               01.0972820209E+00-3.217869731E+00+
*       1.5517538752E+02               0
GRID*               3587               0-1.375996394E+00-3.485145156E+00+
*       1.5602339936E+02               0
GRID*               3588               0-9.863965095E-01-3.377348809E+00+
*       1.5363440424E+02               0
GRID*               3589               01.4868819050E+00-3.110073385E+00+
*       1.5278639240E+02               0
GRID*               3590               0-7.005932526E-01-4.235235209E+00+
*       1.5465879996E+02               0
GRID*               3591               05.2623875433E+00-1.469395774E+00+
*       1.5770915775E+02               0
GRID*               3592               05.2624837402E+00-1.469197262E+00+
*       1.5566908246E+02               0
GRID*               3593               03.8892949906E+00-2.461747122E+00+
*       1.5611205846E+02               0
GRID*               3594               03.8891987938E+00-2.461945634E+00+
*       1.5815213374E+02               0
GRID*               3595               02.4020955363E+00-6.611291156E-01+
*       1.5678114091E+02               0
GRID*               3596               0-6.755372559E-012.2270790894E-01+
*       1.5619579794E+02               0
GRID*               3597               09.2550581219E-01-6.284401538E-01+
*       1.5554822531E+02               0
GRID*               3598               0-7.789382304E-011.2479467308E+00+
*       1.5451990633E+02               0
GRID*               3599               0-6.541906914E-022.1760773047E+00+
*       1.5657640504E+02               0
GRID*               3600               01.5356239989E+001.3249292420E+00+
*       1.5592883240E+02               0
GRID*               3601               0-2.465807460E+00-4.688470975E+00+
*       1.5499950182E+02               0
GRID*               3602               0-3.934632135E+00-3.418178452E+00+
*       1.5499950182E+02               0
GRID*               3603               0-2.180004203E+00-5.546357375E+00+
*       1.5602389754E+02               0
GRID*               3604               0-3.648828878E+00-4.276064852E+00+
*       1.5602389754E+02               0
GRID*               3605               01.6882594404E+005.2651245420E+00+
*       1.2464606465E+02               0
GRID*               3606               01.6881923175E+005.2651592613E+00+
*       1.2246094192E+02               0
GRID*               3607               03.1222603446E+003.9554608670E+00+
*       1.2246094215E+02               0
GRID*               3608               01.5592542391E+00-5.275383208E+00+
*       1.5806397249E+02               0
GRID*               3609               0-6.821603132E-02-3.875956037E+00+
*       1.5940503412E+02               0
GRID*               3610               02.5812313444E+00-4.808307689E+00+
*       1.6042121152E+02               0
GRID*               3611               02.6188042008E+00-3.930706918E+00+
*       1.5815213340E+02               0
GRID*               3612               0-3.064317499E-02-2.998355266E+00+
*       1.5713595600E+02               0
GRID*               3613               0-2.995090582E+00-4.821483931E+00+
*       1.5921456007E+02               0
GRID*               3614               0-1.158225609E+00-5.079185660E+00+
*       1.6042121186E+02               0
GRID*               3615               0-2.180202714E+00-5.546261178E+00+
*       1.5806397283E+02               0
GRID*               3616               0-1.905081004E+00-3.618254308E+00+
*       1.5819838233E+02               0
GRID*               3617               0-2.736694417E-01-5.911650427E+00+
*       1.5602389754E+02               0
GRID*               3618               01.1593044237E-01-5.803854080E+00+
*       1.5363490242E+02               0
GRID*               3619               0-1.790404319E+00-5.438561029E+00+
*       1.5363490242E+02               0
GRID*               3620               08.1712668090E-026.9644323273E-02+
*       2.2078304888E+02               0
GRID*               3621               01.3237138651E+001.9308882513E+00+
*       2.2033008590E+02               0
GRID*               3622               05.5975073948E-011.3393280603E+00+
*       2.1791163080E+02               0
GRID*               3623               0-2.787263856E+001.1100736049E+00+
*       2.1846877512E+02               0
GRID*               3624               0-1.545262659E+002.9713175329E+00+
*       2.1801581214E+02               0
GRID*               3625               0-2.296789389E-015.2637705648E+00+
*       2.1268559720E+02               0
GRID*               3626               0-2.294651870E-015.2637883310E+00+
*       2.1565260355E+02               0
GRID*               3627               0-1.423700107E+004.9301727633E+00+
*       2.1695751383E+02               0
GRID*               3628               0-1.423913859E+004.9301549971E+00+
*       2.1399050748E+02               0
GRID*               3629               0-1.114990864E+002.7133729096E+00+
*       2.1429244677E+02               0
GRID*               3630               03.3514907827E+003.5232150357E+00+
*       2.1927178460E+02               0
GRID*               3631               01.2464773846E+005.1552045083E+00+
*       2.1937596595E+02               0
GRID*               3632               04.8251425903E-014.5636443173E+00+
*       2.1695751085E+02               0
GRID*               3633               02.1301593222E+001.6978869233E+00+
*       2.5405193814E+02               0
GRID*               3634               01.5024523743E+002.6745350374E+00+
*       2.5323671419E+02               0
GRID*               3635               02.6665285065E-016.7510221676E-01+
*       2.5236193672E+02               0
GRID*               3636               0-2.976378312E-013.3231294725E+00+
*       2.5323671517E+02               0
GRID*               3637               05.8430170270E+00-1.716839044E-01+
*       2.2949375916E+02               0
GRID*               3638               05.5016392585E+00-2.074889485E+00+
*       2.2949375947E+02               0
GRID*               3639               05.8430348366E+00-1.718192307E-01+
*       2.3182084500E+02               0
GRID*               3640               0-6.437593927E-018.3340677318E-01+
*       2.5012072203E+02               0
GRID*               3641               0-7.715421296E-013.0417387621E-02+
*       2.5153251602E+02               0
GRID*               3642               0-1.054247425E+00-7.879261700E-01+
*       2.5010652529E+02               0
GRID*               3643               04.3972401325E-011.1741388450E-02+
*       2.4893059504E+02               0
GRID*               3644               07.2242930869E-018.3008494604E-01+
*       2.5035658578E+02               0
GRID*               3645               03.1194127637E-01-7.912479971E-01+
*       2.5034238903E+02               0
GRID*               3646               0-3.088266631E+00-9.124952740E-01+
*       2.5322251745E+02               0
GRID*               3647               0-3.088261751E+00-9.125318230E-01+
*       2.5075915964E+02               0
GRID*               3648               0-2.677773719E+007.0880112017E-01+
*       2.5077335638E+02               0
GRID*               3649               0-2.677778598E+007.0883766919E-01+
*       2.5323671419E+02               0
GRID*               3650               0-2.050071650E+00-2.678104448E-01+
*       2.5405193814E+02               0
GRID*               3651               0-1.438351817E-01-9.462307264E-01+
*       2.5234773998E+02               0
GRID*               3652               0-2.028582863E+002.5095180486E+00+
*       2.5323671419E+02               0
GRID*               3653               02.7246109723E+00-5.018525636E+00+
*       1.1568993356E+02               0
GRID*               3654               04.0342750923E+00-3.584433855E+00+
*       1.1568993323E+02               0
GRID*               3655               02.7246844915E+00-5.018477627E+00+
*       1.1334739577E+02               0
GRID*               3656               0-4.979024801E+00-4.004038141E-01+
*       2.0084527139E+02               0
GRID*               3657               0-4.343450892E+00-2.233804623E+00+
*       2.0084527138E+02               0
GRID*               3658               0-4.691409174E+00-1.707787632E-01+
*       1.9713684185E+02               0
GRID*               3659               0-2.189950262E+00-3.169963386E-02+
*       1.9907153813E+02               0
GRID*               3660               0-4.055835265E+00-2.004179572E+00+
*       1.9713684185E+02               0
GRID*               3661               0-1.806571353E+00-4.993606304E+00+
*       2.0655552540E+02               0
GRID*               3662               09.9785624566E-02-5.359956563E+00+
*       2.0655553030E+02               0
GRID*               3663               0-1.618451584E+00-4.654810147E+00+
*       2.0366479943E+02               0
GRID*               3664               0-1.513565576E-01-2.900600376E+00+
*       2.0430814259E+02               0
GRID*               3665               02.8790539292E-01-5.021160405E+00+
*       2.0366480433E+02               0
GRID*               3666               01.4949033577E+00-3.657070990E+00+
*       1.9620046272E+02               0
GRID*               3667               02.7399456844E-011.8213357511E-01+
*       1.9442672946E+02               0
GRID*               3668               0-6.814258459E-01-3.641279148E+00+
*       1.9713684185E+02               0
GRID*               3669               02.8812307707E-01-5.021143966E+00+
*       2.0016399586E+02               0
GRID*               3670               01.2435434914E+00-1.197731243E+00+
*       1.9745388347E+02               0
GRID*               3671               0-9.327857122E-01-1.181939401E+00+
*       1.9839026261E+02               0
GRID*               3672               04.6480099778E+00-9.737935468E-01+
*       2.0348253982E+02               0
GRID*               3673               03.3772442215E+00-2.441628305E+00+
*       1.9998173625E+02               0
GRID*               3674               03.3922896425E+00-2.917735299E+00+
*       2.0366479943E+02               0
GRID*               3675               01.2924835460E+00-6.178624665E-01+
*       2.0123515700E+02               0
GRID*               3676               02.1215238862E+00-4.385570057E+00+
*       2.0016399586E+02               0
GRID*               3677               05.3625981646E+00-1.834112610E+00+
*       1.1751341433E+02               0
GRID*               3678               05.7610054463E+005.9551865598E-02+
*       1.1751341413E+02               0
GRID*               3679               05.5436787818E+008.3892599074E-01+
*       1.1512250898E+02               0
GRID*               3680               05.1452715001E+00-1.054738485E+00+
*       1.1512250918E+02               0
GRID*               3681               03.8489706663E+005.6208861507E-01+
*       1.1590594254E+02               0
GRID*               3682               03.5318996156E-025.3237730057E-01+
*       2.0191643252E+02               0
GRID*               3683               03.2293462311E-017.6200235144E-01+
*       1.9820800299E+02               0
GRID*               3684               0-1.220401339E+00-1.411564452E+00+
*       2.0209869214E+02               0
GRID*               3685               0-1.521109679E+00-5.870658355E+00+
*       2.4800926431E+02               0
GRID*               3686               0-3.320476925E+00-5.222414497E+00+
*       2.4800926431E+02               0
GRID*               3687               0-2.516774552E+00-3.854148070E+00+
*       2.4884570020E+02               0
GRID*               3688               0-7.174073068E-01-4.502391929E+00+
*       2.4884570020E+02               0
GRID*               3689               0-2.472067423E+00-5.378528876E+00+
*       2.4685496452E+02               0
GRID*               3690               09.5158395641E-01-1.731733836E+00+
*       2.4690105064E+02               0
GRID*               3691               02.8497235839E+00-9.137305202E-01+
*       2.4692216269E+02               0
GRID*               3692               01.9953948257E+00-2.653883918E+00+
*       2.4465675455E+02               0
GRID*               3693               08.8393684316E-017.0835342933E-02+
*       2.4733649923E+02               0
GRID*               3694               01.9277477124E+00-8.513147386E-01+
*       2.4509220314E+02               0
GRID*               3695               01.6540281779E-01-4.233204321E+00+
*       2.4731782125E+02               0
GRID*               3696               03.1674728356E-01-5.476316549E+00+
*       2.4532708559E+02               0
GRID*               3697               03.8489490315E-01-6.237633636E+00+
*       2.4800926435E+02               0
GRID*               3698               0-7.855549264E-01-3.741074841E+00+
*       2.4616352145E+02               0
GRID*               3699               0-5.660628410E-01-5.745504157E+00+
*       2.4685496455E+02               0
GRID*               3700               0-4.788183926E+00-3.950820356E+00+
*       2.4800926436E+02               0
GRID*               3701               0-3.939774425E+00-4.106934735E+00+
*       2.4685496456E+02               0
GRID*               3702               0-4.881543547E+00-2.255884345E+00+
*       1.4150541137E+02               0
GRID*               3703               0-5.015162650E+00-3.596509067E+00+
*       1.4287078909E+02               0
GRID*               3704               0-2.145824371E+00-1.841485238E+00+
*       2.4934736565E+02               0
GRID*               3705               0-2.273607108E+00-2.644474624E+00+
*       2.5075915964E+02               0
GRID*               3706               0-1.297414870E+00-1.997599617E+00+
*       2.4819306585E+02               0
GRID*               3707               0-1.425197606E+00-2.800589002E+00+
*       2.4960485985E+02               0
GRID*               3708               0-3.056964300E+00-3.837747127E+00+
*       2.4532708561E+02               0
GRID*               3709               0-5.096778312E+00-2.436284625E+00+
*       2.4535546213E+02               0
GRID*               3710               0-2.825368938E+00-2.339612339E+00+
*       2.4619189797E+02               0
GRID*               3711               03.1760416757E+001.9416937641E-01+
*       2.8360043623E+02               0
GRID*               3712               02.3728647067E+001.9268738267E+00+
*       2.8360043781E+02               0
GRID*               3713               02.5171301371E+001.1668702145E-01+
*       2.8065470264E+02               0
GRID*               3714               07.2138653124E-017.8488070812E-02+
*       2.8213105010E+02               0
GRID*               3715               01.7139531681E+001.8493914718E+00+
*       2.8065470422E+02               0
GRID*               3716               06.8773831834E-02-2.000921444E+00+
*       2.4842892960E+02               0
GRID*               3717               0-8.532020396E-01-1.938505662E+00+
*       2.4659897004E+02               0
GRID*               3718               0-3.673778440E+00-2.183497961E+00+
*       2.4734619777E+02               0
GRID*               3719               01.5024230604E+002.6745574510E+00+
*       2.5077335638E+02               0
GRID*               3720               0-2.976376682E-013.3231294266E+00+
*       2.5077335638E+02               0
GRID*               3721               02.5859064663E+001.8528920663E+00+
*       2.4958322939E+02               0
GRID*               3722               07.8584573775E-012.5014640419E+00+
*       2.4958322939E+02               0
GRID*               3723               0-2.056994931E+005.0953969575E+00+
*       1.2464606481E+02               0
GRID*               3724               05.6395511796E-01-2.648033653E+00+
*       2.5158858034E+02               0
GRID*               3725               0-4.742398622E-01-3.292718482E+00+
*       2.5075915964E+02               0
GRID*               3726               0-4.742763136E-01-3.292723349E+00+
*       2.5322251745E+02               0
GRID*               3727               01.0197315760E+00-2.493050923E+00+
*       2.4958322939E+02               0
GRID*               3728               01.3501362566E+00-1.465631680E-01+
*       2.5117180973E+02               0
GRID*               3729               02.1301300083E+001.6979093370E+00+
*       2.5158858034E+02               0
GRID*               3730               0-1.235421176E+00-1.999782448E+00+
*       2.5405193889E+02               0
GRID*               3731               0-2.273616156E+00-2.644467277E+00+
*       2.5322251819E+02               0
GRID*               3732               0-7.307707187E-02-2.153303878E+00+
*       1.4737059821E+02               0
GRID*               3733               0-4.541114879E-01-3.966882431E+00+
*       1.4606730360E+02               0
GRID*               3734               01.1458255611E+00-3.338692464E+00+
*       1.4355981070E+02               0
GRID*               3735               01.5268599771E+00-1.525113911E+00+
*       1.4486310531E+02               0
GRID*               3736               01.6277449250E+00-3.686170677E+00+
*       1.4608811684E+02               0
GRID*               3737               03.9606848608E+00-4.314216595E+00+
*       1.4121102843E+02               0
GRID*               3738               01.6798506775E+00-3.143413758E+00+
*       1.4042074044E+02               0
GRID*               3739               03.6332428721E+00-4.688800743E+00+
*       1.4283200386E+02               0
GRID*               3740               03.5551239627E+00-2.683396562E+00+
*       1.4195964852E+02               0
GRID*               3741               01.3524086887E+00-3.517997906E+00+
*       1.4204171586E+02               0
GRID*               3742               05.2705323917E+00-2.880262727E+00+
*       1.4121102844E+02               0
GRID*               3743               04.9430904030E+00-3.254846876E+00+
*       1.4283200387E+02               0
GRID*               3744               03.8002557119E+00-4.600551602E-01+
*       1.4501628516E+02               0
GRID*               3745               01.9208128732E+00-5.147469182E-01+
*       1.4672185085E+02               0
GRID*               3746               01.7054808189E+006.2444645849E-02+
*       1.4444002098E+02               0
GRID*               3747               03.4063028158E+00-1.470422153E+00+
*       1.4315753962E+02               0
GRID*               3748               03.6216348701E+00-2.047613717E+00+
*       1.4543936949E+02               0
GRID*               3749               05.5203821492E+002.2628010647E-01+
*       1.4439294763E+02               0
GRID*               3750               05.3417613074E+00-1.361278450E+00+
*       1.4481603195E+02               0
GRID*               3751               01.5310295306E+00-1.930439349E+00+
*       1.4161863154E+02               0
GRID*               3752               03.7337448046E+00-1.095838005E+00+
*       1.4153656420E+02               0
GRID*               3753               03.2830664920E+00-2.885103056E+00+
*       2.1653504309E+02               0
GRID*               3754               03.2832426762E+00-2.884980867E+00+
*       2.1356803674E+02               0
GRID*               3755               01.9974665914E+00-4.702787088E+00+
*       2.1712160463E+02               0
GRID*               3756               01.0753298890E+00-1.377809465E+00+
*       2.1533897710E+02               0
GRID*               3757               03.8169652288E+00-2.955590950E+00+
*       2.1927178759E+02               0
GRID*               3758               02.8948285264E+003.6938667328E-01+
*       2.1748916005E+02               0
GRID*               3759               01.6092286258E+00-1.448297359E+00+
*       2.1807572159E+02               0
GRID*               3760               07.2528256894E-015.2988501194E+00+
*       1.2034059988E+02               0
GRID*               3761               02.2226924867E+00-1.338541112E+00+
*       2.1240787433E+02               0
GRID*               3762               09.3171682275E-01-1.072105547E+00+
*       2.1372324982E+02               0
GRID*               3763               07.9347951987E-01-2.850521227E+00+
*       2.1137870859E+02               0
GRID*               3764               0-4.437522061E+00-2.701783758E+00+
*       2.1111162821E+02               0
GRID*               3765               0-2.656208567E+00-9.094595705E-01+
*       2.1252507228E+02               0
GRID*               3766               0-4.428522809E+00-2.413231376E+00+
*       2.1379710198E+02               0
GRID*               3767               0-1.581351981E+00-1.891048807E+00+
*       2.1126684129E+02               0
GRID*               3768               0-1.572352730E+00-1.602496426E+00+
*       2.1395231506E+02               0
GRID*               3769               01.2200869228E+001.7434315226E+00+
*       2.1386997602E+02               0
GRID*               3770               01.3803114956E+001.8002267275E+00+
*       2.1076772873E+02               0
GRID*               3771               02.5211543623E+004.9666977279E-01+
*       2.1165016826E+02               0
GRID*               3772               0-2.091260440E-012.3145140735E-01+
*       2.1284081028E+02               0
GRID*               3773               01.0919413955E+00-1.015310342E+00+
*       2.1062100252E+02               0
GRID*               3774               0-1.292981881E+009.2448826263E-01+
*       2.1141356750E+02               0
GRID*               3775               0-1.283982630E+001.2130406442E+00+
*       2.1409904127E+02               0
GRID*               3776               0-1.806717299E+00-4.993535674E+00+
*       2.0979125932E+02               0
GRID*               3777               0-1.502342072E+00-2.218704243E+00+
*       2.0851923354E+02               0
GRID*               3778               0-2.969583045E+00-3.972843383E+00+
*       2.1111162429E+02               0
GRID*               3779               0-4.184862350E-01-2.911741098E+00+
*       2.0994647632E+02               0
GRID*               3780               04.4161356290E+00-3.195311585E+00+
*       2.0798775768E+02               0
GRID*               3781               02.3829170594E+00-1.281745907E+00+
*       2.0930562704E+02               0
GRID*               3782               04.7145975047E+00-1.360100701E+00+
*       2.0723005161E+02               0
GRID*               3783               03.2041698741E+00-3.256531457E+00+
*       2.0655552540E+02               0
GRID*               3784               08.7248942892E-01-3.178176662E+00+
*       2.0863110083E+02               0
GRID*               3785               01.1709513046E+00-1.342965778E+00+
*       2.0787339476E+02               0
GRID*               3786               0-2.875616134E+00-3.504570379E+00+
*       2.0434607496E+02               0
GRID*               3787               0-3.086286342E+00-3.384044390E+00+
*       2.0016399586E+02               0
GRID*               3788               0-2.571386854E+00-7.296683184E-01+
*       2.0630978309E+02               0
GRID*               3789               0-1.917073795E+001.3573307672E+00+
*       2.0547602741E+02               0
GRID*               3790               0-2.010894760E+008.8898713349E-01+
*       2.0900584284E+02               0
GRID*               3791               0-1.408521107E+00-1.750360609E+00+
*       2.0498941811E+02               0
GRID*               3792               0-8.480290131E-01-1.317051573E-01+
*       2.0768547786E+02               0
GRID*               3793               08.0855580946E-03-3.222734872E-01+
*       2.0919375974E+02               0
GRID*               3794               06.6239861739E-011.7647255984E+00+
*       2.0836000407E+02               0
GRID*               3795               0-4.343574085E+00-2.233624114E+00+
*       2.0434607984E+02               0
GRID*               3796               0-4.437395049E+00-2.701967747E+00+
*       2.0787589527E+02               0
GRID*               3797               0-3.274529303E+00-3.722660038E+00+
*       2.0655553029E+02               0
GRID*               3798               09.9562803951E-02-5.359974593E+00+
*       2.0979126323E+02               0
GRID*               3799               01.3115285588E+00-5.298754722E+00+
*       2.1122349551E+02               0
GRID*               3800               05.4633736749E+001.4220153764E+00+
*       1.2685914307E+02               0
GRID*               3801               03.5458932262E+001.3916015433E+00+
*       1.2704810981E+02               0
GRID*               3802               05.4677297811E-012.6154251226E+00+
*       1.2689401603E+02               0
GRID*               3803               0-1.314492011E+003.6092767378E+00+
*       1.2713417012E+02               0
GRID*               3804               0-1.187257301E+001.3570122272E+00+
*       1.2685574228E+02               0
GRID*               3805               06.2167092909E-011.4990925692E+00+
*       1.2584002241E+02               0
GRID*               3806               01.8118629475E+001.3318864792E-01+
*       1.2700983607E+02               0
GRID*               3807               03.7075485632E+001.9901495326E-01+
*       1.2839756996E+02               0
GRID*               3808               01.5298083266E+005.4661813482E+00+
*       1.3119074791E+02               0
GRID*               3809               0-3.216305403E-014.3846548223E+00+
*       1.3055023081E+02               0
GRID*               3810               01.4349354639E+003.4177267247E+00+
*       1.3200344446E+02               0
GRID*               3811               04.9700468151E+002.1572823372E+00+
*       1.2580514977E+02               0
GRID*               3812               04.8951488641E+003.2736148906E+00+
*       1.2685914339E+02               0
GRID*               3813               03.1223041381E+003.9553935732E+00+
*       1.2464606481E+02               0
GRID*               3814               01.7730485002E+002.0733802259E+00+
*       1.2483503123E+02               0
GRID*               3815               01.6981505492E+003.1897127794E+00+
*       1.2588902485E+02               0
GRID*               3816               0-4.760295643E+002.3300781244E+00+
*       9.2387609011E+01               0
GRID*               3817               0-2.987271214E+008.9986810896E-01+
*       9.1059535249E+01               0
GRID*               3818               0-4.886281086E+002.0199436171E+00+
*       8.9811792634E+01               0
GRID*               3819               0-3.573664870E+003.4573808859E+00+
*       8.9976600090E+01               0
GRID*               3820               0-1.674654998E+002.3373053778E+00+
*       9.1224342705E+01               0
GRID*               3821               0-1.800640441E+002.0271708704E+00+
*       8.8648526328E+01               0
GRID*               3822               0-4.712388195E-011.0359104290E+00+
*       9.3013573303E+01               0
GRID*               3823               0-6.578850840E-012.3004069772E+00+
*       9.4016693062E+01               0
GRID*               3824               01.7321618671E+002.1263147900E+00+
*       9.3394914739E+01               0
GRID*               3825               07.1539195281E-012.1632131905E+00+
*       9.0602564382E+01               0
GRID*               3826               05.2874568831E-013.4277097387E+00+
*       9.1605684141E+01               0
GRID*               3827               02.6844808821E+003.7605618782E+00+
*       9.1765830688E+01               0
GRID*               3828               02.4978346176E+005.0250584264E+00+
*       9.2768950447E+01               0
GRID*               3829               01.4810647033E+005.0619568269E+00+
*       8.9976600090E+01               0
GRID*               3830               0-3.576913455E+003.4541013715E+00+
*       8.6873103537E+01               0
GRID*               3831               0-7.271244007E-011.7842511360E+00+
*       8.5869360235E+01               0
GRID*               3832               0-1.190781199E+004.6486189059E+00+
*       8.4258744899E+01               0
GRID*               3833               0-2.264297240E+004.8915386403E+00+
*       8.7037910993E+01               0
GRID*               3834               05.8549181466E-013.2216884048E+00+
*       8.6034167690E+01               0
GRID*               3835               01.8719962562E-01-5.541882276E+00+
*       1.0860834764E+02               0
GRID*               3836               02.0368494697E+00-4.955234123E+00+
*       1.0860834766E+02               0
GRID*               3837               05.4767710805E-01-5.369610521E+00+
*       1.0621415768E+02               0
GRID*               3838               03.9430439974E-01-3.419270083E+00+
*       1.0765565891E+02               0
GRID*               3839               02.3973269522E+00-4.782962367E+00+
*       1.0621415769E+02               0
GRID*               3840               06.5880078020E-015.2354721412E+00+
*       8.4258744894E+01               0
GRID*               3841               02.5544921637E+004.8190829356E+00+
*       8.4258743692E+01               0
GRID*               3842               01.4809761231E+005.0620026700E+00+
*       8.7037909786E+01               0
GRID*               3843               0-4.147152604E-015.4783918756E+00+
*       8.7037910987E+01               0
GRID*               3844               03.3692759782E+003.3036588970E+00+
*       8.6230016533E+01               0
GRID*               3845               03.3693645584E+003.3036130539E+00+
*       8.9168706837E+01               0
GRID*               3846               01.4002756291E+001.7062643662E+00+
*       8.8005440531E+01               0
GRID*               3847               03.3031761146E+00-3.128433387E+00+
*       5.9885037410E+01               0
GRID*               3848               01.9254526772E+00-4.723649815E+00+
*       5.7348581471E+01               0
GRID*               3849               01.5387719059E+00-4.410100134E+00+
*       6.0213864818E+01               0
GRID*               3850               08.0056519704E-01-1.220593120E+00+
*       6.1310370770E+01               0
GRID*               3851               0-5.771582403E-01-2.815809548E+00+
*       5.8773914831E+01               0
GRID*               3852               0-4.571024726E+00-1.973557113E+00+
*       6.4350735459E+01               0
GRID*               3853               0-3.136695121E+00-3.282813796E+00+
*       6.4350733692E+01               0
GRID*               3854               0-4.570957476E+00-1.973661208E+00+
*       6.0822157617E+01               0
GRID*               3855               0-2.206627352E+00-4.580973932E+00+
*       6.3742440893E+01               0
GRID*               3856               0-3.640889706E+00-3.271821345E+00+
*       6.0213864818E+01               0
GRID*               3857               0-1.893906781E+00-1.204099729E+00+
*       6.2247490977E+01               0
GRID*               3858               01.7891948650E+00-4.654624417E+00+
*       6.6733769709E+01               0
GRID*               3859               01.0510922512E+00-1.465050153E+00+
*       6.4301697820E+01               0
GRID*               3860               03.3030720195E+00-3.128500637E+00+
*       6.3413615253E+01               0
GRID*               3861               01.5386678108E+00-4.410167384E+00+
*       6.3742442660E+01               0
GRID*               3862               0-7.133119575E-01-2.746716900E+00+
*       6.4630525227E+01               0
GRID*               3863               01.7139783211E+001.8493652834E+00+
*       2.7766914457E+02               0
GRID*               3864               0-1.643379727E+00-1.448556763E+00+
*       6.5238818026E+01               0
GRID*               3865               0-1.956100297E+00-4.825430966E+00+
*       6.6733767942E+01               0
GRID*               3866               0-1.009057650E+002.4302069676E+00+
*       2.9254532383E+02               0
GRID*               3867               0-2.739910921E+001.6163060844E+00+
*       2.9254532416E+02               0
GRID*               3868               0-6.596876810E-012.4014708524E+00+
*       2.9052184507E+02               0
GRID*               3869               0-1.433794047E+00-1.627962470E-01+
*       2.9121672321E+02               0
GRID*               3870               0-2.390540952E+001.5875699692E+00+
*       2.9052184540E+02               0
GRID*               3871               03.1575871263E+003.5943288947E+00+
*       7.3652166988E+01               0
GRID*               3872               02.6380797747E+001.9938484043E+00+
*       7.5771204620E+01               0
GRID*               3873               02.9300982690E+005.0591088775E+00+
*       7.4736764518E+01               0
GRID*               3874               06.7310256637E-014.8296381567E+00+
*       7.3294614781E+01               0
GRID*               3875               01.5359521475E-013.2291576663E+00+
*       7.5413652413E+01               0
GRID*               3876               02.3174950952E+002.3319434607E+00+
*       2.9530315969E+02               0
GRID*               3877               05.1737192751E-012.9802235691E+00+
*       2.9321864625E+02               0
GRID*               3878               02.3175197695E+002.3319197217E+00+
*       2.9321864659E+02               0
GRID*               3879               01.0344757523E+005.4753954796E+00+
*       7.7973283902E+01               0
GRID*               3880               03.0443842355E-011.6997453218E+00+
*       7.7377050605E+01               0
GRID*               3881               0-1.071676742E+003.7165124143E+00+
*       7.8494532356E+01               0
GRID*               3882               0-1.222519950E+005.2459247588E+00+
*       7.6531134165E+01               0
GRID*               3883               0-4.646931701E+00-2.005091471E-01+
*       7.5258014558E+01               0
GRID*               3884               0-4.992458023E+00-5.991359451E-01+
*       7.1451672398E+01               0
GRID*               3885               0-4.797774910E+001.3289031974E+00+
*       7.3294616367E+01               0
GRID*               3886               0-4.230603057E+001.6953277992E+00+
*       7.8494530963E+01               0
GRID*               3887               0-4.646938321E+00-2.003885782E-01+
*       7.8494532356E+01               0
GRID*               3888               0-2.921239802E+003.1296018286E+00+
*       7.8494532358E+01               0
GRID*               3889               0-3.072083011E+004.6590141731E+00+
*       7.6531134167E+01               0
GRID*               3890               0-1.462880500E+00-3.380359914E+00+
*       9.9720483812E+01               0
GRID*               3891               0-1.495253285E+00-2.408757245E+00+
*       1.0060769022E+02               0
GRID*               3892               0-5.179065366E+00-1.408315466E+00+
*       9.7575730305E+01               0
GRID*               3893               0-2.863608084E+00-6.328295883E-01+
*       9.6025012220E+01               0
GRID*               3894               0-4.590636736E+00-3.396816384E+00+
*       9.4981835976E+01               0
GRID*               3895               0-2.861925184E+00-7.717129523E-01+
*       9.3431117879E+01               0
GRID*               3896               0-4.589997323E+00-1.415100815E+00+
*       9.5186069723E+01               0
GRID*               3897               0-4.592319637E+00-3.257933020E+00+
*       9.7575730317E+01               0
GRID*               3898               0-2.864247497E+00-2.614545157E+00+
*       9.5820778473E+01               0
GRID*               3899               0-1.755077371E+00-5.472137674E+00+
*       9.8881540457E+01               0
GRID*               3900               0-3.158209093E+00-4.567397236E+00+
*       1.0024328468E+02               0
GRID*               3901               0-3.158127269E+00-4.567439552E+00+
*       9.7575729459E+01               0
GRID*               3902               07.1699959798E-02-1.606888746E-01+
*       8.5174787073E+01               0
GRID*               3903               0-1.548421180E+00-1.533476682E+00+
*       8.2926513474E+01               0
GRID*               3904               01.6684543449E+00-1.424867214E+00+
*       8.4949273679E+01               0
GRID*               3905               08.9447476383E-01-1.659733428E+00+
*       8.7212228436E+01               0
GRID*               3906               0-2.322400761E+00-1.768342896E+00+
*       8.5189468232E+01               0
GRID*               3907               0-7.256463755E-01-3.032521236E+00+
*       8.4963954837E+01               0
GRID*               3908               0-1.700821633E+00-4.728526111E+00+
*       8.3981742934E+01               0
GRID*               3909               0-3.297576018E+00-3.464347772E+00+
*       8.4207256328E+01               0
GRID*               3910               0-2.474801214E+00-4.963392325E+00+
*       8.6244697691E+01               0
GRID*               3911               04.9739863425E+00-1.751027939E+00+
*       8.6230016533E+01               0
GRID*               3912               03.2489928798E+005.0806388005E-01+
*       8.3804554006E+01               0
GRID*               3913               04.9344037380E+00-1.190884653E+00+
*       8.2837023262E+01               0
GRID*               3914               03.3538652032E+00-3.123815747E+00+
*       8.3981742934E+01               0
GRID*               3915               01.6288717404E+00-8.647239272E-01+
*       8.1556280407E+01               0
GRID*               3916               04.9344511593E+00-1.190793088E+00+
*       7.9751161802E+01               0
GRID*               3917               03.3539126245E+00-3.123724182E+00+
*       8.0895881474E+01               0
GRID*               3918               04.4946640796E+00-3.118927464E+00+
*       7.7872294777E+01               0
GRID*               3919               03.1853008251E+00-4.553201493E+00+
*       7.7872296172E+01               0
GRID*               3920               02.0445493700E+00-4.557998211E+00+
*       8.0895882869E+01               0
GRID*               3921               01.1890846607E+00-2.792858304E+00+
*       7.9677413383E+01               0
GRID*               3922               07.0384810250E-015.0453471169E-01+
*       7.9154929897E+01               0
GRID*               3923               02.7696231956E+00-8.599272095E-01+
*       7.8532693711E+01               0
GRID*               3924               0-8.766904324E-01-1.428396382E+00+
*       8.0299649569E+01               0
GRID*               3925               03.1942289525E+008.1806558928E-02+
*       2.9087110688E+02               0
GRID*               3926               03.1942349393E+008.1757184049E-02+
*       2.8859134657E+02               0
GRID*               3927               02.5569127559E+00-1.717578923E+00+
*       2.9087110689E+02               0
GRID*               3928               01.4056926873E-01-5.888629184E+00+
*       9.8881541303E+01               0
GRID*               3929               0-1.262480629E+00-4.983931063E+00+
*       9.7575730305E+01               0
GRID*               3930               0-1.260690968E+00-5.122808380E+00+
*       9.2183376282E+01               0
GRID*               3931               0-6.888029042E-01-2.892378647E+00+
*       9.3530901431E+01               0
GRID*               3932               09.1307072394E-01-5.261758507E+00+
*       9.2487393581E+01               0
GRID*               3933               0-5.792216484E-01-5.379787845E+00+
*       8.9183389013E+01               0
GRID*               3934               0-2.181095277E+00-3.010407986E+00+
*       9.0226896863E+01               0
GRID*               3935               0-7.333584277E-03-3.149358112E+00+
*       9.0530914162E+01               0
GRID*               3936               0-1.260797728E+00-5.122814427E+00+
*       9.4981835964E+01               0
GRID*               3937               09.1296396381E-01-5.261764554E+00+
*       9.5285853263E+01               0
GRID*               3938               0-3.156444368E+00-4.706322916E+00+
*       9.4981835118E+01               0
GRID*               3939               0-4.715924214E+00-1.725324699E+00+
*       8.9811793661E+01               0
GRID*               3940               0-2.987910627E+00-1.081847460E+00+
*       9.0855301502E+01               0
GRID*               3941               0-4.590578184E+00-3.396905760E+00+
*       9.2183376291E+01               0
GRID*               3942               0-3.909108864E+00-3.653885225E+00+
*       8.9183389022E+01               0
GRID*               3943               0-2.306441307E+00-1.338826924E+00+
*       8.7855314233E+01               0
GRID*               3944               0-5.302722448E+001.2427547090E-01+
*       8.9811793652E+01               0
GRID*               3945               0-5.176737005E+004.3440997825E-01+
*       9.2387610029E+01               0
GRID*               3946               0-5.177376418E+00-1.547305590E+00+
*       9.2183376282E+01               0
GRID*               3947               02.5121239166E+001.1647544344E-01+
*       2.7103768323E+02               0
GRID*               3948               02.4802108185E+001.1503458610E-01+
*       2.6742104562E+02               0
GRID*               3949               01.8426980531E+00-1.684290046E+00+
*       2.6742104561E+02               0
GRID*               3950               02.0515785405E-02-5.806251976E-04+
*       2.6915545809E+02               0
GRID*               3951               0-8.141489343E-01-1.220797586E+00+
*       9.1159318801E+01               0
GRID*               3952               02.1047388885E+001.1251436712E+00+
*       1.1447516105E+02               0
GRID*               3953               02.7379742584E+00-1.967606756E+00+
*       1.1647336659E+02               0
GRID*               3954               02.5206475939E+00-1.188232630E+00+
*       1.1408246144E+02               0
GRID*               3955               02.0143867424E+003.7838618003E+00+
*       1.1608263285E+02               0
GRID*               3956               05.8315324136E+006.5375634951E-02+
*       1.4070406350E+02               0
GRID*               3957               03.8960825208E+00-4.383339337E-02+
*       1.4102959931E+02               0
GRID*               3958               05.5203735504E+002.2634543216E-01+
*       1.4240891948E+02               0
GRID*               3959               05.3275398703E+001.6746572801E+00+
*       1.4102659690E+02               0
GRID*               3960               03.7032488407E+001.4044784546E+00+
*       1.3964727673E+02               0
GRID*               3961               03.3920899775E+001.5654482518E+00+
*       1.4135213272E+02               0
GRID*               3962               05.5178795679E+001.8747946562E+00+
*       1.3731466510E+02               0
GRID*               3963               03.8935972219E+001.6045498600E+00+
*       1.3793896200E+02               0
GRID*               3964               05.3275311866E+001.6747232508E+00+
*       1.3902297983E+02               0
GRID*               3965               03.3896046786E+003.2138315051E+00+
*       1.3826149541E+02               0
GRID*               3966               04.9497491501E+003.7264119404E+00+
*       1.3731466521E+02               0
GRID*               3967               04.7594007689E+003.5263405350E+00+
*       1.3902297993E+02               0
GRID*               3968               03.3254243799E+004.8361606873E+00+
*       1.3902297992E+02               0
GRID*               3969               04.8127552002E+003.4653171399E+00+
*       1.4321803548E+02               0
GRID*               3970               03.3788013330E+004.7751646709E+00+
*       1.4321803548E+02               0
GRID*               3971               04.7594385366E+003.5262819350E+00+
*       1.4102659696E+02               0
GRID*               3972               03.2525729610E+002.9527953047E+00+
*       1.4216124866E+02               0
GRID*               3973               03.3254846694E+004.8361294659E+00+
*       1.4102659696E+02               0
GRID*               3974               0-1.697691995E-01-1.999134590E+00+
*       1.4021316405E+02               0
GRID*               3975               02.0329460744E+00-1.164533245E+00+
*       1.4013109671E+02               0
GRID*               3976               01.0745931133E-01-2.173991094E+00+
*       1.3845664445E+02               0
GRID*               3977               05.2705636132E+00-2.880202438E+00+
*       1.3920741140E+02               0
GRID*               3978               04.0449036677E+00-1.256807802E+00+
*       1.3983170821E+02               0
GRID*               3979               05.4329013294E+00-1.828197827E+00+
*       1.3870044652E+02               0
GRID*               3980               05.2528714285E+00-3.206656421E+00+
*       1.3725191957E+02               0
GRID*               3981               01.8841249275E+004.8441163357E-02+
*       1.4132898781E+02               0
GRID*               3982               05.6691946974E+00-9.866289765E-01+
*       1.4121102838E+02               0
GRID*               3983               01.3244464029E+00-1.751133907E+00+
*       1.4313672638E+02               0
GRID*               3984               0-7.294477241E-01-3.798709660E+00+
*       1.4202090262E+02               0
GRID*               3985               05.1217112448E+00-1.667288319E+00+
*       1.4240891954E+02               0
GRID*               3986               01.3857448663E+00-5.140330000E+00+
*       1.6548441968E+02               0
GRID*               3987               01.5917286304E+00-3.104593837E+00+
*       1.6454574165E+02               0
GRID*               3988               07.4777730997E-01-5.444616681E+00+
*       1.6270095118E+02               0
GRID*               3989               0-6.010181194E-01-5.301166055E+00+
*       1.6459141217E+02               0
GRID*               3990               02.4293320101E-01-2.961143211E+00+
*       1.6643620264E+02               0
GRID*               3991               0-3.950343554E-01-3.265429892E+00+
*       1.6365273414E+02               0
GRID*               3992               04.5362603669E+00-1.152864828E+00+
*       1.7052889156E+02               0
GRID*               3993               04.7408172541E+00-1.779126159E+00+
*       1.6771673030E+02               0
GRID*               3994               02.4811615797E+00-1.543675123E+00+
*       1.6678703074E+02               0
GRID*               3995               0-6.941834852E-01-4.284616802E+00+
*       1.6844427933E+02               0
GRID*               3996               01.3853908306E+00-5.140358973E+00+
*       1.6825890741E+02               0
GRID*               3997               0-6.013721551E-01-5.301195028E+00+
*       1.6736589990E+02               0
GRID*               3998               0-1.836641115E+00-2.105401039E+00+
*       1.6662157456E+02               0
GRID*               3999               01.8431940234E+00-1.847961804E+00+
*       1.6400356224E+02               0
GRID*               4000               04.9439859402E-01-1.704511177E+00+
*       1.6589402322E+02               0
GRID*               4001               01.7276987363E+002.1806096162E+00+
*       1.4182013608E+02               0
GRID*               4002               01.5348650561E+003.6289214642E+00+
*       1.4043781350E+02               0
GRID*               4003               02.6900006137E-022.1119143757E+00+
*       1.4041466859E+02               0
GRID*               4004               01.6912912474E+001.4967530113E+00+
*       1.3994666523E+02               0
GRID*               4005               01.7838364178E+002.1695219652E+00+
*       1.3589056381E+02               0
GRID*               4006               0-1.420382638E-014.2806970946E+00+
*       1.3462053868E+02               0
GRID*               4007               01.5341483051E+002.1624971881E+00+
*       1.3378807514E+02               0
GRID*               4008               08.9325659683E-021.5807001193E+00+
*       1.3501450894E+02               0
GRID*               4009               0-1.586860909E+003.6989000258E+00+
*       1.3584697248E+02               0
GRID*               4010               0-1.836549022E+003.6918752488E+00+
*       1.3374448380E+02               0
GRID*               4011               0-3.458081273E+00-3.436421078E+00+
*       1.1125412195E+02               0
GRID*               4012               0-3.458006029E+00-3.436459984E+00+
*       1.0881509203E+02               0
GRID*               4013               0-4.892146886E+00-2.126870222E+00+
*       1.0881509259E+02               0
GRID*               4014               03.5199880233E+001.7326124846E+00+
*       1.3580564048E+02               0
GRID*               4015               01.8438014544E+003.8508123911E+00+
*       1.3663810402E+02               0
GRID*               4016               01.8816396286E+001.6968244167E+00+
*       1.3823835050E+02               0
GRID*               4017               01.4548802313E-012.1337338973E+00+
*       1.3832327384E+02               0
GRID*               4018               06.2009964223E+003.8122840182E-01+
*       2.4800926426E+02               0
GRID*               4019               05.4579057194E+001.9357117589E-01+
*       1.3453389662E+02               0
GRID*               4020               05.5178707559E+001.8748616018E+00+
*       1.3528143683E+02               0
GRID*               4021               05.3586928781E+001.4488007124E+00+
*       1.3274926595E+02               0
GRID*               4022               0-1.666919961E-015.0493916993E-02+
*       6.5464787834E+01               0
GRID*               4023               01.0139028275E+00-1.492123253E+00+
*       6.7847822084E+01               0
GRID*               4024               08.2631754122E-011.5021434903E+00+
*       6.8090708854E+01               0
GRID*               4025               0-1.830965013E+001.5457099805E+00+
*       6.5481704796E+01               0
GRID*               4026               0-6.503701896E-013.0928101768E-03+
*       6.7864739046E+01               0
GRID*               4027               0-1.088077618E-03-4.247319564E-01+
*       6.9179703315E+01               0
GRID*               4028               0-1.665361095E+001.0704841071E+00+
*       6.9196620278E+01               0
GRID*               4029               0-4.576178041E+001.2966071405E+00+
*       7.1451670813E+01               0
GRID*               4030               0-4.576227356E+001.2965121759E+00+
*       6.8065649174E+01               0
GRID*               4031               0-3.748772422E+003.2234825872E+00+
*       7.0362676351E+01               0
GRID*               4032               0-3.748821737E+003.2233876226E+00+
*       6.6976654712E+01               0
GRID*               4033               03.0974695841E+003.7082560687E+00+
*       2.2647282416E+01               0
GRID*               4034               01.2017758560E+004.1241352752E+00+
*       2.2647281853E+01               0
GRID*               4035               02.2564957333E+005.0954527185E+00+
*       1.9942750546E+01               0
GRID*               4036               01.9058443163E+002.1433484484E+00+
*       2.1750398504E+01               0
GRID*               4037               03.6080200517E-015.5113319250E+00+
*       1.9942749982E+01               0
GRID*               4038               03.2239428597E-024.9973583434E+00+
*       6.4281205144E+01               0
GRID*               4039               01.9280107958E+004.5811342251E+00+
*       6.4281203374E+01               0
GRID*               4040               01.3057301078E+004.8285237761E+00+
*       6.6976654712E+01               0
GRID*               4041               0-5.900412595E-015.2447478944E+00+
*       6.6976656483E+01               0
GRID*               4042               0-2.156747878E-012.7499700029E+00+
*       6.5412174478E+01               0
GRID*               4043               0-2.658370632E+00-3.811654662E-01+
*       6.6570699258E+01               0
GRID*               4044               0-4.741831274E+001.7717380493E+00+
*       6.4350733692E+01               0
GRID*               4045               0-1.470677982E+002.9985232497E+00+
*       7.1039564246E+01               0
GRID*               4046               0-2.439461587E+004.6577845020E+00+
*       7.0362677936E+01               0
GRID*               4047               0-5.899180132E-015.2447544429E+00+
*       7.0362677937E+01               0
GRID*               4048               0-1.222640519E+005.2459181388E+00+
*       7.3294616367E+01               0
GRID*               4049               0-3.072184093E+004.6589481979E+00+
*       7.3294616366E+01               0
GRID*               4050               0-4.706441316E+001.0379731599E+00+
*       2.1111162429E+02               0
GRID*               4051               0-4.052128257E+003.1249722455E+00+
*       2.1027786862E+02               0
GRID*               4052               0-3.334215379E+003.1604733746E+00+
*       2.1268559328E+02               0
GRID*               4053               0-6.386688221E-013.0114873482E+00+
*       2.1057981183E+02               0
GRID*               4054               0-9.475918171E-015.2282694357E+00+
*       2.1027787254E+02               0
GRID*               4055               07.1504501195E-013.2770360944E+00+
*       2.0908410753E+02               0
GRID*               4056               01.1240348952E+005.5293193110E+00+
*       2.1118989290E+02               0
GRID*               4057               01.4329578901E+003.3125372235E+00+
*       2.1149183220E+02               0
GRID*               4058               0-2.781068632E+004.5929112609E+00+
*       2.1027787254E+02               0
GRID*               4059               0-2.063155753E+004.6284123900E+00+
*       2.1268559720E+02               0
GRID*               4060               04.8127919052E+003.4652600145E+00+
*       1.4520206359E+02               0
GRID*               4061               03.6607386955E+009.2729189272E-01+
*       1.4582540110E+02               0
GRID*               4062               05.1676409760E+001.5007213976E+00+
*       1.4667477751E+02               0
GRID*               4063               04.6826072231E+003.9165726162E+00+
*       1.4702098173E+02               0
GRID*               4064               01.6534530731E+003.6507409857E+00+
*       1.3834641874E+02               0
GRID*               4065               01.5881817198E+003.5679566692E+00+
*       1.4262925202E+02               0
GRID*               4066               03.4454066411E+001.5044834568E+00+
*       1.4354357124E+02               0
GRID*               4067               0-1.383784738E-013.9770496149E+00+
*       1.4270416347E+02               0
GRID*               4068               01.7188464476E+001.9135764026E+00+
*       1.4361848269E+02               0
GRID*               4069               05.3808651327E+001.6136271594E+00+
*       1.4520206357E+02               0
GRID*               4070               05.3808565339E+001.6136924851E+00+
*       1.4321803542E+02               0
GRID*               4071               0-1.765446104E+002.3525613671E+00+
*       1.2838629742E+02               0
GRID*               4072               0-8.332427325E-022.2340643205E+00+
*       1.3024262431E+02               0
GRID*               4073               0-1.597235673E+009.0988360593E-02+
*       1.3004651011E+02               0
GRID*               4074               0-1.638211393E+001.0029685661E-01+
*       1.2810786959E+02               0
GRID*               4075               04.3910437688E-02-1.820019002E-02+
*       1.2996419648E+02               0
GRID*               4076               0-3.146053897E+00-1.319430889E+00+
*       1.2642232074E+02               0
GRID*               4077               0-3.613279507E+00-1.357060151E+00+
*       1.2380933714E+02               0
GRID*               4078               0-3.746583114E+001.7185614532E-01+
*       1.2557719961E+02               0
GRID*               4079               0-1.504907786E+00-1.428619440E+00+
*       1.2634000711E+02               0
GRID*               4080               0-2.105437003E+006.2667594704E-02+
*       1.2549488598E+02               0
GRID*               4081               0-3.295629021E+001.4285715160E+00+
*       1.2432507231E+02               0
GRID*               4082               0-2.828403412E+001.4662007779E+00+
*       1.2693805592E+02               0
GRID*               4083               0-1.915030330E+00-1.277283299E-01+
*       1.2315336045E+02               0
GRID*               4084               0-9.968506279E-011.1666163026E+00+
*       1.2451421676E+02               0
GRID*               4085               02.7508920171E-01-2.131457261E+00+
*       1.3000951495E+02               0
GRID*               4086               0-1.407032629E+00-2.012960215E+00+
*       1.2815318805E+02               0
GRID*               4087               0-2.215446363E+005.2965293824E+00+
*       1.3119074800E+02               0
GRID*               4088               0-2.215384010E+005.2965697836E+00+
*       1.3326387165E+02               0
GRID*               4089               0-3.660206655E+004.7147727148E+00+
*       1.3449030545E+02               0
GRID*               4090               0-3.660269009E+004.7147323137E+00+
*       1.3241718180E+02               0
GRID*               4091               03.6276502806E-027.6593361034E-03+
*       1.3594696922E+02               0
GRID*               4092               0-1.602071892E+00-2.812873179E-02+
*       1.3837967924E+02               0
GRID*               4093               0-1.965635561E+005.3036335560E+00+
*       1.3739958854E+02               0
GRID*               4094               0-1.639910066E+002.1258592426E+00+
*       1.3677943276E+02               0
GRID*               4095               0-3.713195476E+003.1417709270E+00+
*       1.3745599395E+02               0
GRID*               4096               0-3.660146319E+004.7148117102E+00+
*       1.3652353367E+02               0
GRID*               4097               0-3.334420824E+001.5370373968E+00+
*       1.3590337788E+02               0
GRID*               4098               01.1392426468E+00-9.350839286E-01+
*       1.3479340998E+02               0
GRID*               4099               0-1.534201095E-012.1230818158E+00+
*       1.3221044350E+02               0
GRID*               4100               0-1.598242755E+001.5412847470E+00+
*       1.3343687730E+02               0
GRID*               4101               0-1.708484132E+00-5.125257786E+00+
*       1.1104737702E+02               0
GRID*               4102               0-1.708408888E+00-5.125296693E+00+
*       1.0860834710E+02               0
GRID*               4103               0-1.715770224E+00-1.902705130E+00+
*       1.1025659380E+02               0
GRID*               4104               05.1453088678E+00-1.054666220E+00+
*       1.1277997128E+02               0
GRID*               4105               01.8327354595E+00-1.125039549E+00+
*       1.1178244313E+02               0
GRID*               4106               03.3464003255E+00-3.521168510E+00+
*       1.1104737702E+02               0
GRID*               4107               04.0343124599E+00-3.584361591E+00+
*       1.1334739533E+02               0
GRID*               4108               07.2173905171E-01-3.654734920E+00+
*       1.1234986718E+02               0
GRID*               4109               0-2.687523005E+00-1.546490299E+00+
*       1.1325565682E+02               0
GRID*               4110               0-9.379258632E-01-3.235327008E+00+
*       1.1304891189E+02               0
GRID*               4111               0-1.443766795E+003.4747809048E-01+
*       1.1294931172E+02               0
GRID*               4112               03.0583034629E-01-1.341358618E+00+
*       1.1274256680E+02               0
GRID*               4113               0-1.734556749E+001.5348795198E-01+
*       1.0992811373E+02               0
GRID*               4114               02.8704382194E-017.1483446374E-01+
*       1.1241408672E+02               0
GRID*               4115               01.5040392953E-02-1.535348757E+00+
*       1.0972136880E+02               0
GRID*               4116               02.0367723571E+00-4.955284546E+00+
*       1.1104737746E+02               0
GRID*               4117               01.8710755741E-01-5.541887412E+00+
*       1.1104737744E+02               0
GRID*               4118               08.7501969181E-01-5.605080493E+00+
*       1.1334739575E+02               0
GRID*               4119               01.8139489352E+009.3115353273E-01+
*       1.1145396306E+02               0
GRID*               4120               0-4.405420807E+00-2.448782986E+00+
*       6.8065650941E+01               0
GRID*               4121               0-4.992451474E+00-5.992591913E-01+
*       6.8065650944E+01               0
GRID*               4122               0-1.712070302E+00-5.486368749E+00+
*       1.4929780487E+02               0
GRID*               4123               0-1.527554533E+00-3.367846056E+00+
*       1.5017793998E+02               0
GRID*               4124               0-3.267432712E+00-4.539854162E+00+
*       1.5088013511E+02               0
GRID*               4125               0-1.881470925E+00-5.392907859E+00+
*       1.5113490242E+02               0
GRID*               4126               0-1.415927462E-01-4.220899753E+00+
*       1.5043270729E+02               0
GRID*               4127               0-1.696955155E+00-3.274385166E+00+
*       1.5201503753E+02               0
GRID*               4128               01.2210048700E-01-2.292423954E+00+
*       1.4953314019E+02               0
GRID*               4129               0-1.433261922E+00-1.345909366E+00+
*       1.5111547044E+02               0
GRID*               4130               0-4.730013526E-02-2.198963063E+00+
*       1.5137023774E+02               0
GRID*               4131               0-3.176366105E+00-4.585507332E+00+
*       1.5338013511E+02               0
GRID*               4132               0-2.372358296E+00-2.524295112E+00+
*       1.5337963693E+02               0
GRID*               4133               05.3145121054E+00-1.662171111E+00+
*       1.6018475926E+02               0
GRID*               4134               03.8274088479E+001.3864540778E-01+
*       1.5881376643E+02               0
GRID*               4135               02.4542200983E+00-8.539044524E-01+
*       1.5925674243E+02               0
GRID*               4136               0-2.405937226E+00-1.160390497E-01+
*       1.5991880638E+02               0
GRID*               4137               0-3.183843407E+009.8994077870E-01+
*       1.5909685721E+02               0
GRID*               4138               0-3.497875053E+00-1.787497232E+00+
*       1.5852702040E+02               0
GRID*               4139               0-1.623437224E+00-1.167598190E+00+
*       1.5746459407E+02               0
GRID*               4140               01.6377564041E+001.7645004472E+00+
*       1.5338149890E+02               0
GRID*               4141               02.2986945618E+003.6410970632E-01+
*       1.5510524931E+02               0
GRID*               4142               0-2.235943439E+002.3802468772E+00+
*       1.5782806107E+02               0
GRID*               4143               0-1.715243730E+003.4195967458E+00+
*       1.5888970912E+02               0
GRID*               4144               04.5528063944E-013.2154271733E+00+
*       1.5763805308E+02               0
GRID*               4145               0-3.327881267E+007.0878869506E-01+
*       1.5643627510E+02               0
GRID*               4146               01.7505751382E+00-1.181597586E+00+
*       1.5188682531E+02               0
GRID*               4147               0-7.227032762E-01-1.448873010E+00+
*       1.5273483714E+02               0
GRID*               4148               0-4.198474064E-01-1.115230044E+00+
*       1.5443566867E+02               0
GRID*               4149               02.0534310081E+00-8.479546195E-01+
*       1.5358765683E+02               0
GRID*               4150               05.1924896784E-016.3155702019E-02+
*       1.5217150217E+02               0
GRID*               4151               0-4.861370545E+00-1.855403253E+00+
*       1.9174332289E+01               0
GRID*               4152               0-1.884041166E+00-1.060175555E+00+
*       2.0243602455E+01               0
GRID*               4153               0-3.340158890E+00-3.246927803E+00+
*       2.1908903514E+01               0
GRID*               4154               0-3.436060582E+00-3.526242719E+00+
*       1.9148501118E+01               0
GRID*               4155               0-1.979942858E+00-1.339490472E+00+
*       1.7483200060E+01               0
GRID*               4156               0-4.587312026E-01-2.731015021E+00+
*       2.0217771285E+01               0
GRID*               4157               0-4.861294623E+00-1.855522129E+00+
*       1.5790703226E+01               0
GRID*               4158               01.8396629953E+00-4.384594186E+00+
*       2.1908903514E+01               0
GRID*               4159               09.7934521055E-01-1.273536605E+00+
*       1.9635161223E+01               0
GRID*               4160               03.1818377163E+00-3.206430687E+00+
*       1.8565891057E+01               0
GRID*               4161               01.7437613032E+00-4.663909103E+00+
*       1.9148501118E+01               0
GRID*               4162               08.8344351849E-01-1.552851522E+00+
*       1.6874758828E+01               0
GRID*               4163               0-1.905475256E+00-4.556030221E+00+
*       2.1908904069E+01               0
GRID*               4164               0-2.001376948E+00-4.835345138E+00+
*       1.9148501674E+01               0
GRID*               4165               0-3.434116105E+00-6.555150190E-02+
*       1.4514596413E+01               0
GRID*               4166               01.1599965131E+001.7800298444E+00+
*       2.4314866694E+02               0
GRID*               4167               0-9.606067148E-011.5541749073E+00+
*       2.4276931810E+02               0
GRID*               4168               02.0137968748E+002.5165479409E-01+
*       2.4403642918E+02               0
GRID*               4169               0-8.918393900E-011.6616261749E+00+
*       2.4461877744E+02               0
GRID*               4170               0-3.101161915E+002.9899084154E-01+
*       2.3981785831E+02               0
GRID*               4171               0-2.228348805E+002.7498497199E+00+
*       2.4145942433E+02               0
GRID*               4172               0-2.618452862E+007.3914234696E-01+
*       2.4208944917E+02               0
GRID*               4173               0-1.833419826E+00-8.966839710E-01+
*       2.4112775207E+02               0
GRID*               4174               03.5910715547E+004.3317121979E-01+
*       2.4447599665E+02               0
GRID*               4175               02.5472606855E+001.3553213013E+00+
*       2.4672029275E+02               0
GRID*               4176               01.6252848140E+001.4177370830E+00+
*       2.4489033319E+02               0
GRID*               4177               02.0814439881E+00-1.550914385E+00+
*       2.4360098059E+02               0
GRID*               4178               03.9795836156E+00-7.329110691E-01+
*       2.4362209264E+02               0
GRID*               4179               02.6924727137E-011.9831727175E+00+
*       2.4815518049E+02               0
GRID*               4180               01.6354359727E+001.9798508904E+00+
*       2.4839104423E+02               0
GRID*               4181               0-4.822518582E-017.4157170078E-02+
*       2.4710063549E+02               0
GRID*               4182               07.1346010128E-012.0422666720E+00+
*       2.4656108468E+02               0
GRID*               4183               06.1536899587E-014.4728953710E+00+
*       2.4880781484E+02               0
GRID*               4184               0-5.803429636E-012.5047858691E+00+
*       2.4934736565E+02               0
GRID*               4185               0-1.985733576E+003.5830902982E+00+
*       2.4869847369E+02               0
GRID*               4186               0-1.136143341E+003.0614771467E+00+
*       2.4750628853E+02               0
GRID*               4187               0-2.864006289E+001.2605194978E+00+
*       2.4421170537E+02               0
GRID*               4188               0-1.887642471E+001.1524615992E+00+
*       2.4645174353E+02               0
GRID*               4189               02.3767839436E+003.3267526304E+00+
*       2.4594487819E+02               0
GRID*               4190               0-1.403402604E-013.5706417224E+00+
*       2.4567332244E+02               0
GRID*               4191               07.7148445228E-012.9461121333E+00+
*       2.4400257095E+02               0
GRID*               4192               0-4.382780854E+00-2.321454750E+00+
*       1.7474210200E+02               0
GRID*               4193               0-2.359069275E+00-3.777499447E-01+
*       1.7758245734E+02               0
GRID*               4194               0-4.185166929E+00-2.263330344E+00+
*       1.7886852248E+02               0
GRID*               4195               0-3.193126208E+00-3.772229183E+00+
*       1.7740858246E+02               0
GRID*               4196               0-1.169414629E+00-1.828524378E+00+
*       1.8024893780E+02               0
GRID*               4197               01.2929329408E-021.3941825618E-02+
*       1.8026501459E+02               0
GRID*               4198               0-1.996435876E+001.1721846717E+00+
*       1.7567574154E+02               0
GRID*               4199               0-1.798821950E+001.2303090768E+00+
*       1.7980216202E+02               0
GRID*               4200               03.7556272878E-011.5638764420E+00+
*       1.7835829878E+02               0
GRID*               4201               0-4.185244944E+00-2.263194716E+00+
*       1.8270726198E+02               0
GRID*               4202               0-2.716996731E+00-3.533994271E+00+
*       1.8270725995E+02               0
GRID*               4203               0-1.724956010E+00-5.042893109E+00+
*       1.8124731993E+02               0
GRID*               4204               03.1970389504E+00-2.930762674E+00+
*       1.8126339874E+02               0
GRID*               4205               03.1971745789E+00-2.930684658E+00+
*       1.7742465924E+02               0
GRID*               4206               02.0146949921E+00-4.773228878E+00+
*       1.8124732196E+02               0
GRID*               4207               02.0148306206E+00-4.773150862E+00+
*       1.7740858246E+02               0
GRID*               4208               01.0226542713E+00-3.264330039E+00+
*       1.8270726198E+02               0
GRID*               4209               0-8.107053882E-01-3.900044145E+00+
*       1.8270726195E+02               0
GRID*               4210               01.8133533259E-01-5.408942984E+00+
*       1.8124732193E+02               0
GRID*               4211               0-4.420698190E+002.9658056266E+00+
*       1.5978439688E+02               0
GRID*               4212               0-4.564736050E+002.6846535430E+00+
*       1.5712381477E+02               0
GRID*               4213               0-4.044036341E+003.7240034115E+00+
*       1.5818546282E+02               0
GRID*               4214               0-3.294539723E+004.1532797069E+00+
*       1.5508373948E+02               0
GRID*               4215               0-2.773840015E+005.1926295754E+00+
*       1.5614538753E+02               0
GRID*               4216               05.0436341348E+002.0772858429E+00+
*       1.6018475892E+02               0
GRID*               4217               03.0643382851E+001.0994649434E+00+
*       1.5963734953E+02               0
GRID*               4218               01.6657459231E+005.2654765163E+00+
*       1.6049619407E+02               0
GRID*               4219               0-6.386511637E-013.9796283813E+00+
*       1.5960150631E+02               0
GRID*               4220               09.6581520552E-015.4636426657E+00+
*       1.5818546282E+02               0
GRID*               4221               02.7596777262E+004.5012753084E+00+
*       1.5853274084E+02               0
GRID*               4222               01.1552113570E+003.0172610239E+00+
*       1.5994878434E+02               0
GRID*               4223               0-2.405481239E-015.6308836841E+00+
*       1.6049619374E+02               0
GRID*               4224               0-2.073711030E+004.9945985457E+00+
*       1.6049619373E+02               0
GRID*               4225               0-9.404788415E-015.8290498335E+00+
*       1.5818546249E+02               0
GRID*               4226               0-2.773641748E+005.1927646951E+00+
*       1.5818546248E+02               0
GRID*               4227               05.2333627872E+001.6646696072E+00+
*       2.3182084618E+02               0
GRID*               4228               05.2332679565E+001.6648065114E+00+
*       2.2949376095E+02               0
GRID*               4229               0-5.476543324E+00-6.129645662E-01+
*       1.8034184475E+00               0
GRID*               4230               0-5.168979952E+00-1.907028235E+00+
*       -9.670094486E-01               0
GRID*               4231               0-3.741018050E+00-3.263704982E-01+
*       8.3640899883E-01               0
GRID*               4232               03.4420682025E-015.4872113661E+00+
*       3.1020204065E+00               0
GRID*               4233               0-1.439798989E+002.5875482022E+00+
*       3.8685055324E+00               0
GRID*               4234               0-2.128072114E+004.5924108465E+00+
*       4.8223300656E+00               0
GRID*               4235               0-1.661716449E+005.2265202062E+00+
*       2.7231680412E+00               0
GRID*               4236               0-3.445722258E+002.3268570423E+00+
*       3.4896531671E+00               0
GRID*               4237               0-1.477932255E+002.7403065673E+00+
*       5.9016592158E+00               0
GRID*               4238               09.9434667907E-013.6351070869E+00+
*       4.1813495567E+00               0
GRID*               4239               03.9361641924E-012.0319122194E+00+
*       6.9324177430E+00               0
GRID*               4240               0-2.040529249E+009.8435333476E-01+
*       6.6195737187E+00               0
GRID*               4241               0-1.815979982E+00-9.324650565E-02+
*       9.5852469206E+00               0
GRID*               4242               0-2.652656421E+001.0144878918E+00+
*       9.0661893481E+00               0
GRID*               4243               0-2.446703629E+001.1549088114E+00+
*       1.0972449951E+01               0
GRID*               4244               0-7.997042216E-011.5241143040E+00+
*       9.0375352764E+00               0
GRID*               4245               0-3.893481448E+004.7472692262E-01+
*       6.6482277904E+00               0
GRID*               4246               0-2.671252896E+002.2325086518E+00+
*       8.0067767492E+00               0
GRID*               4247               0-3.592872909E+003.0245853995E+00+
*       8.4207257535E+01               0
GRID*               4248               0-4.902286383E+001.5903390648E+00+
*       8.4207256328E+01               0
GRID*               4249               0-3.592970550E+003.0245215291E+00+
*       8.1121396264E+01               0
GRID*               4250               0-3.271052169E+00-3.841825867E+00+
*       2.2270861516E+02               0
GRID*               4251               0-1.798549161E+00-1.819192962E+00+
*       2.2150121821E+02               0
GRID*               4252               0-4.737804935E+00-2.182243037E+00+
*       2.2254759015E+02               0
GRID*               4253               0-4.044218778E+00-3.545579209E+00+
*       2.2438736850E+02               0
GRID*               4254               0-2.571715770E+00-1.522946305E+00+
*       2.2317997155E+02               0
GRID*               4255               0-5.242078713E+00-2.466210954E-01+
*       2.2528575849E+02               0
GRID*               4256               0-4.606921954E+00-2.080170491E+00+
*       2.2528575850E+02               0
GRID*               4257               0-5.372961694E+00-3.486936409E-01+
*       2.2254759014E+02               0
GRID*               4258               01.2703785212E+00-4.792989610E+00+
*       8.9183389022E+01               0
GRID*               4259               0-5.791098309E-01-5.379781531E+00+
*       8.6244698892E+01               0
GRID*               4260               0-2.422558007E-01-2.190238359E-01+
*       2.2290319607E+02               0
GRID*               4261               03.1047587944E+001.0230619513E-02+
*       2.2234605175E+02               0
GRID*               4262               01.5484654341E+00-1.589938507E+00+
*       2.2094407388E+02               0
GRID*               4263               04.7640244943E+00-1.776626725E+00+
*       2.2661427148E+02               0
GRID*               4264               04.7640909617E+00-1.776489844E+00+
*       2.2411059085E+02               0
GRID*               4265               03.4928331333E+00-3.244372742E+00+
*       2.2411059302E+02               0
GRID*               4266               04.6302957534E-013.4644868036E+00+
*       2.2374959665E+02               0
GRID*               4267               09.9974539628E-011.6422200921E+00+
*       2.2245023309E+02               0
GRID*               4268               02.9236949584E-022.4540239552E+00+
*       2.2544773596E+02               0
GRID*               4269               0-2.493087737E+004.8865928338E+00+
*       2.2209462717E+02               0
GRID*               4270               0-1.248758629E+004.7882019135E+00+
*       2.2540995658E+02               0
GRID*               4271               0-2.926880363E+003.8761299854E+00+
*       2.2379276648E+02               0
GRID*               4272               0-5.698416917E+00-2.874889998E-01+
*       1.6280842971E+02               0
GRID*               4273               0-2.922966717E+00-5.610036334E-01+
*       1.6483859210E+02               0
GRID*               4274               0-4.704902645E+00-8.153081796E-01+
*       1.6566979160E+02               0
GRID*               4275               0-4.612091315E+00-1.831886406E+00+
*       1.6459141217E+02               0
GRID*               4276               0-2.830155387E+00-1.577581860E+00+
*       1.6376021266E+02               0
GRID*               4277               0-4.464018046E+00-3.550849125E+00+
*       1.6149429938E+02               0
GRID*               4278               0-3.318224931E+00-1.463330757E+00+
*       1.6066309988E+02               0
GRID*               4279               0-5.062274105E+00-2.120702821E+00+
*       1.6280842969E+02               0
GRID*               4280               0-3.975948503E+00-3.665100227E+00+
*       1.6459141216E+02               0
GRID*               4281               0-2.231899328E+00-3.007728163E+00+
*       1.6244608235E+02               0
GRID*               4282               0-4.068961769E+00-2.648230025E+00+
*       1.6844427933E+02               0
GRID*               4283               0-2.600330837E+00-3.918915174E+00+
*       1.6844428164E+02               0
GRID*               4284               0-3.976150439E+00-3.664808251E+00+
*       1.6736589990E+02               0
GRID*               4285               0-2.507519507E+00-4.935493400E+00+
*       1.6736590221E+02               0
GRID*               4286               0-8.912497479E-01-6.715316237E-01+
*       1.6473605539E+02               0
GRID*               4287               01.4397899608E+00-2.706417615E-01+
*       1.6400850406E+02               0
GRID*               4288               04.0158726400E-01-6.879329511E-01+
*       1.6697240266E+02               0
GRID*               4289               0-7.984384179E-01-1.688109850E+00+
*       1.6365767596E+02               0
GRID*               4290               02.5809911316E+00-4.808473870E+00+
*       1.6270095117E+02               0
GRID*               4291               03.2189586879E+00-4.504187189E+00+
*       1.6548441967E+02               0
GRID*               4292               0-1.158449507E+00-5.079077143E+00+
*       1.6270095241E+02               0
GRID*               4293               0-2.995314480E+00-4.821375414E+00+
*       1.6149430062E+02               0
GRID*               4294               0-2.507244936E+00-4.935626517E+00+
*       1.6459141340E+02               0
GRID*               4295               0-1.273729022E+00-3.541876511E+00+
*       1.2638532558E+02               0
GRID*               4296               0-5.427053477E+001.8096147836E+00+
*       1.3271893286E+02               0
GRID*               4297               0-4.117324138E+003.2435733529E+00+
*       1.3064580926E+02               0
GRID*               4298               0-4.969998348E+003.2807737444E+00+
*       1.3449030540E+02               0
GRID*               4299               0-3.738426797E+001.6389192192E+00+
*       1.3319954506E+02               0
GRID*               4300               03.6890191831E+00-1.160226171E+00+
*       1.3137228982E+02               0
GRID*               4301               01.8343092873E+00-1.235360972E+00+
*       1.3192319646E+02               0
GRID*               4302               0-2.226149170E+00-1.982249361E+00+
*       1.3173342013E+02               0
GRID*               4303               0-8.596512854E-02-2.079883833E+00+
*       1.3197075238E+02               0
GRID*               4304               0-7.191770539E-01-3.026874448E+00+
*       1.3328369372E+02               0
GRID*               4305               01.7071071911E+00-1.084214549E+00+
*       1.3012524785E+02               0
GRID*               4306               0-1.314501113E+00-1.619015364E+00+
*       1.2399848158E+02               0
GRID*               4307               0-2.293604151E+002.2207162880E+00+
*       1.3197311126E+02               0
GRID*               4308               01.8986203335E+005.6934611331E-02+
*       1.2941328984E+02               0
GRID*               4309               0-1.605963911E-011.8588846446E+00+
*       1.4532404838E+02               0
GRID*               4310               0-1.795348540E+001.6185257411E+00+
*       1.4271497453E+02               0
GRID*               4311               0-2.108733991E+001.2382032904E+00+
*       1.4474782666E+02               0
GRID*               4312               0-2.095368362E+003.0893350471E+00+
*       1.4392628837E+02               0
GRID*               4313               0-5.936870004E+00-5.239077120E-01+
*       1.4539086583E+02               0
GRID*               4314               0-5.767901343E+001.0647450796E+00+
*       1.4470075332E+02               0
GRID*               4315               0-4.212474623E+008.8000090135E-01+
*       1.4404017916E+02               0
GRID*               4316               0-5.767898104E+001.0646772413E+00+
*       1.4271672520E+02               0
GRID*               4317               0-5.627993269E+001.2688880557E+00+
*       1.4697404412E+02               0
GRID*               4318               0-4.072566549E+001.0841438774E+00+
*       1.4631346997E+02               0
GRID*               4319               0-3.903597888E+002.6727966690E+00+
*       1.4562335746E+02               0
GRID*               4320               0-2.092960141E+005.0148552935E+00+
*       1.4527697504E+02               0
GRID*               4321               0-1.955460288E+003.2934780232E+00+
*       1.4619957917E+02               0
GRID*               4322               0-3.901189667E+004.5983169155E+00+
*       1.4697404413E+02               0
GRID*               4323               0-4.041097740E+004.3941739394E+00+
*       1.4470075333E+02               0
GRID*               4324               0-1.968825917E+001.4423462665E+00+
*       1.4702111746E+02               0
GRID*               4325               02.7626708935E+00-4.674960272E+00+
*       9.2487393590E+01               0
GRID*               4326               02.3867671362E+00-1.541704090E+00+
*       9.0516233004E+01               0
GRID*               4327               03.6644792416E+00-3.185335589E+00+
*       8.9168707863E+01               0
GRID*               4328               03.6645728688E+00-3.185274274E+00+
*       8.6230017740E+01               0
GRID*               4329               02.0444517294E+00-4.558062081E+00+
*       8.3981744141E+01               0
GRID*               4330               01.2704721483E+00-4.792928296E+00+
*       8.6244698898E+01               0
GRID*               4331               0-4.731822353E+00-2.154934298E+00+
*       8.4207257535E+01               0
GRID*               4332               0-3.129216111E+001.6021762957E-01+
*       8.5817872871E+01               0
GRID*               4333               0-4.715862899E+00-1.725418326E+00+
*       8.6873103537E+01               0
GRID*               4334               0-3.909047549E+00-3.653978852E+00+
*       8.6244698898E+01               0
GRID*               4335               01.9498630920E-01-5.144908797E+00+
*       8.0895882867E+01               0
GRID*               4336               01.5452694320E-011.7409039593E+00+
*       1.2350922559E+02               0
GRID*               4337               01.8136219275E+002.0197263329E+00+
*       1.2300913217E+02               0
GRID*               4338               06.2750229099E-013.3189384120E+00+
*       1.2163316598E+02               0
GRID*               4339               0-2.043262717E+00-3.598191248E+00+
*       1.2402409264E+02               0
GRID*               4340               02.2522939652E+00-5.277354145E+00+
*       1.2686618812E+02               0
GRID*               4341               03.6843119546E+00-4.230111432E+00+
*       1.2698192102E+02               0
GRID*               4342               03.8805139842E+00-4.276977492E+00+
*       1.2486333815E+02               0
GRID*               4343               01.4828275638E+00-5.333625088E+00+
*       1.2231983252E+02               0
GRID*               4344               0-5.476548200E+00-6.128684918E-01+
*       3.8313409174E+00               0
GRID*               4345               0-5.235715426E+001.3083539744E+00+
*       6.9524557136E-01               0
GRID*               4346               0-5.235720301E+001.3084500488E+00+
*       2.7231680412E+00               0
GRID*               4347               0-3.220194491E+001.0396478615E+00+
*       2.4986640188E+00               0
GRID*               4348               0-5.302716134E+001.2416365336E-01+
*       8.6873103532E+01               0
GRID*               4349               0-4.886326929E+002.0198550369E+00+
*       8.6873102330E+01               0
GRID*               4350               0-4.525712622E-012.5956408104E+00+
*       -1.923392135E+00               0
GRID*               4351               0-9.223936958E-019.0472309687E-01+
*       -1.957513756E+00               0
GRID*               4352               04.1608509460E+002.9916406664E+00+
*       -9.835755182E-01               0
GRID*               4353               05.2542784013E+001.6198456434E+00+
*       5.5244490036E-01               0
GRID*               4354               0-3.465455967E+001.7399580618E+00+
*       -1.906826066E+00               0
GRID*               4355               0-1.477951440E+00-6.063052821E-01+
*       -1.984706587E+00               0
GRID*               4356               0-2.662095663E+00-2.336593311E-01+
*       -4.435822788E-01               0
GRID*               4357               0-3.500190152E+001.5949480424E+00+
*       -2.717638773E-01               0
GRID*               4358               0-3.977451255E+004.0048991919E+00+
*       4.8223300572E+00               0
GRID*               4359               0-5.286387578E+002.5701083183E+00+
*       4.8223301433E+00               0
GRID*               4360               0-3.511095590E+004.6390085516E+00+
*       2.7231680328E+00               0
GRID*               4361               0-4.820031913E+003.2042176780E+00+
*       2.7231681190E+00               0
GRID*               4362               0-3.476442188E+004.7839663170E+00+
*       -9.398166170E-01               0
GRID*               4363               0-1.627078338E+005.3715253502E+00+
*       -9.398166170E-01               0
GRID*               4364               0-3.511176373E+004.6389562977E+00+
*       6.9524557136E-01               0
GRID*               4365               0-1.661812523E+005.2265153308E+00+
*       6.9524557136E-01               0
GRID*               4366               03.6771207171E+001.5361407525E+00+
*       2.4342022269E+02               0
GRID*               4367               09.9986017651E-013.2471259483E+00+
*       2.4194942462E+02               0
GRID*               4368               03.5169843805E+003.0032368563E+00+
*       2.4222098038E+02               0
GRID*               4369               05.5544193673E+003.9634506783E-01+
*       2.4040833675E+02               0
GRID*               4370               05.7478740383E+004.5044275566E-01+
*       2.4226936684E+02               0
GRID*               4371               05.5877377017E+001.9175388595E+00+
*       2.4107012453E+02               0
GRID*               4372               0-1.711197000E+003.2420639033E+00+
*       2.3776217297E+02               0
GRID*               4373               05.5877217168E+001.9176603206E+00+
*       2.3898146658E+02               0
GRID*               4374               07.6495461636E-014.9684518918E+00+
*       2.4285171521E+02               0
GRID*               4375               0-1.200721953E+003.7281682671E+00+
*       2.4188588473E+02               0
GRID*               4376               01.3098724146E+005.5066189336E+00+
*       2.4100658474E+02               0
GRID*               4377               03.5104545446E+005.0255766148E+00+
*       2.4107012464E+02               0
GRID*               4378               05.3593619774E+001.6165250445E+00+
*       2.4312327086E+02               0
GRID*               4379               02.4172930866E+001.8392097873E+00+
*       1.0718356056E+02               0
GRID*               4380               01.5045130296E+001.5331850102E+00+
*       1.0466587503E+02               0
GRID*               4381               02.8775256706E+00-8.043903301E-02+
*       1.0635174021E+02               0
GRID*               4382               01.8932797981E+003.7321503462E-01+
*       1.0913115723E+02               0
GRID*               4383               05.2026715711E-011.9868390779E+00+
*       1.0744529206E+02               0
GRID*               4384               09.8049974110E-016.7190257606E-02+
*       1.0661347171E+02               0
GRID*               4385               0-3.767384250E-01-3.452030311E-01+
*       1.0465194249E+02               0
GRID*               4386               0-9.817202907E-01-1.775470290E+00+
*       1.0536564962E+02               0
GRID*               4387               0-1.360984297E+001.0845103651E-01+
*       1.0743135951E+02               0
GRID*               4388               03.7551787539E-01-1.363077001E+00+
*       1.0732717884E+02               0
GRID*               4389               04.9753836367E+002.6905167494E+00+
*       1.1512250951E+02               0
GRID*               4390               0-8.369710089E-011.5744457891E+00+
*       1.0548376284E+02               0
GRID*               4391               02.1795200029E-013.6835750549E+00+
*       1.0773213754E+02               0
GRID*               4392               0-1.663299454E+001.8051870135E+00+
*       1.0771820500E+02               0
GRID*               4393               0-3.060612882E-012.2175803023E+00+
*       1.0967973422E+02               0
GRID*               4394               01.4212093678E+005.2866450065E+00+
*       1.1100574244E+02               0
GRID*               4395               0-1.527133488E-022.4115704408E+00+
*       1.1270093221E+02               0
GRID*               4396               02.0143144780E+003.7838991680E+00+
*       1.1374009494E+02               0
GRID*               4397               01.2492650212E+005.3937094349E+00+
*       1.1311152922E+02               0
GRID*               4398               0-7.803207916E-014.0213807077E+00+
*       1.1207236649E+02               0
GRID*               4399               02.2725438049E+00-1.510706292E+00+
*       1.0706544734E+02               0
GRID*               4400               01.9120663225E+00-1.682978047E+00+
*       1.0945963731E+02               0
GRID*               4401               0-2.979172032E+00-1.334239728E+00+
*       1.1483887697E+02               0
GRID*               4402               0-3.757016393E+00-1.617850272E-03+
*       1.1204655887E+02               0
GRID*               4403               0-1.735415822E+005.5972866149E-01+
*       1.1453253187E+02               0
GRID*               4404               01.5116337784E+002.6278895097E+00+
*       1.1174080855E+02               0
GRID*               4405               0-5.351002397E+002.9601833672E+00+
*       1.4271672522E+02               0
GRID*               4406               0-3.866683182E+003.7978041789E+00+
*       1.5103367422E+02               0
GRID*               4407               0-5.176580684E+002.3638965444E+00+
*       1.5103367422E+02               0
GRID*               4408               0-3.901135832E+004.5983516975E+00+
*       1.4894832413E+02               0
GRID*               4409               0-3.729237164E+002.0763921264E+00+
*       1.4998199835E+02               0
GRID*               4410               0-5.211033334E+003.1644440631E+00+
*       1.4894832413E+02               0
GRID*               4411               0-5.590525061E+00-2.534057837E-01+
*       1.4752191874E+02               0
GRID*               4412               0-4.035098341E+00-4.381499620E-01+
*       1.4686134459E+02               0
GRID*               4413               0-3.726221606E+001.3546458057E+00+
*       1.4844452288E+02               0
GRID*               4414               0-2.277702652E+00-3.504495012E-01+
*       1.4543793917E+02               0
GRID*               4415               0-2.435605635E+005.1714919676E+00+
*       1.4978357193E+02               0
GRID*               4416               0-2.263706966E+002.6495323965E+00+
*       1.5081724615E+02               0
GRID*               4417               0-2.298159616E+003.4500799152E+00+
*       1.4873189606E+02               0
GRID*               4418               0-1.931357709E+00-7.994757297E-02+
*       1.4756899209E+02               0
GRID*               4419               0-3.054464053E+003.2035284334E+00+
*       1.9340965429E+02               0
GRID*               4420               0-8.781348491E-013.1877365915E+00+
*       1.9247327515E+02               0
GRID*               4421               0-1.534594281E+004.5279784031E+00+
*       1.9386244904E+02               0
GRID*               4422               0-3.824648635E-011.5223753866E+00+
*       1.9581590335E+02               0
GRID*               4423               01.7938643401E+001.5065835447E+00+
*       1.9487952421E+02               0
GRID*               4424               0-3.054309598E+003.2036306560E+00+
*       1.9713684185E+02               0
GRID*               4425               0-1.534439827E+004.5280806256E+00+
*       1.9758963660E+02               0
GRID*               4426               04.3297276109E+002.1864676017E+00+
*       1.9247327515E+02               0
GRID*               4427               04.3298298335E+002.1863131475E+00+
*       1.9620046271E+02               0
GRID*               4428               03.6733704016E+003.5265549590E+00+
*       1.9758963660E+02               0
GRID*               4429               03.6732681790E+003.5267094132E+00+
*       1.9386244904E+02               0
GRID*               4430               0-1.390913128E+001.3747529827E+00+
*       1.9874545912E+02               0
GRID*               4431               08.3435613031E-011.9388299172E+00+
*       2.0159035351E+02               0
GRID*               4432               01.8428043947E+002.0864523211E+00+
*       1.9866079774E+02               0
GRID*               4433               01.2895664375E-012.6992029524E+00+
*       1.9919825387E+02               0
GRID*               4434               0-2.542888091E+004.3804582217E+00+
*       2.0051919237E+02               0
GRID*               4435               09.5523619044E-013.8234014644E+00+
*       1.9247327514E+02               0
GRID*               4436               02.8616397229E+003.4572510845E+00+
*       1.9247327039E+02               0
GRID*               4437               02.2051802910E+004.7974928960E+00+
*       1.9386244428E+02               0
GRID*               4438               02.9877675855E-015.1636432760E+00+
*       1.9386244903E+02               0
GRID*               4439               02.0216978211E+00-2.675803684E+00+
*       1.4794686238E+02               0
GRID*               4440               02.1159904321E+00-6.538669941E-01+
*       1.4888439283E+02               0
GRID*               4441               02.1215539112E-02-1.313671881E-01+
*       1.4830812866E+02               0
GRID*               4442               0-3.436719384E+00-1.641252284E+00+
*       1.4844482804E+02               0
GRID*               4443               0-1.736180150E+00-2.190676489E-01+
*       1.4973153407E+02               0
GRID*               4444               0-1.484146136E+00-1.692671900E+00+
*       1.4918396461E+02               0
GRID*               4445               0-2.260691409E+001.9277860757E+00+
*       1.4927977068E+02               0
GRID*               4446               0-3.691768956E+005.5409828699E-01+
*       1.5052987297E+02               0
GRID*               4447               0-3.081181604E-011.8763664606E+00+
*       1.5001890726E+02               0
GRID*               4448               0-1.739195708E+005.0267867187E-01+
*       1.5126900954E+02               0
GRID*               4449               0-1.081794100E+009.1430376479E-01+
*       1.5281907480E+02               0
GRID*               4450               0-1.606305359E+003.0611574894E+00+
*       1.5236731141E+02               0
GRID*               4451               0-5.262290579E-032.2100094266E+00+
*       1.5171973878E+02               0
GRID*               4452               03.3430923655E+00-3.883154562E+00+
*       1.4929780487E+02               0
GRID*               4453               01.6562825272E+00-3.203534276E+00+
*       1.5094929485E+02               0
GRID*               4454               04.9715670167E+00-2.772328194E+00+
*       1.5165148998E+02               0
GRID*               4455               03.4373849765E+00-1.861217873E+00+
*       1.5023533532E+02               0
GRID*               4456               0-3.385835170E+00-1.294489751E+00+
*       1.5037633386E+02               0
GRID*               4457               0-3.133801156E+00-2.768094002E+00+
*       1.4982876440E+02               0
GRID*               4458               0-1.093816812E-024.2659023501E+00+
*       1.3881442211E+02               0
GRID*               4459               0-1.758498083E+002.1040397211E+00+
*       1.3887082751E+02               0
GRID*               4460               01.8047717499E-021.8448811621E+00+
*       1.4221301520E+02               0
GRID*               4461               02.4154297245E+003.8243233954E+00+
*       2.4880781484E+02               0
GRID*               4462               03.3272544372E+003.1997938064E+00+
*       2.4713706335E+02               0
GRID*               4463               03.4926832032E+00-3.244476799E+00+
*       2.2661427296E+02               0
GRID*               4464               02.3672240886E+00-4.931384428E+00+
*       2.2510983438E+02               0
GRID*               4465               05.5015765315E+00-2.075018624E+00+
*       2.3182084525E+02               0
GRID*               4466               04.2302979674E+00-3.542739558E+00+
*       2.2949376095E+02               0
GRID*               4467               04.2301610633E+00-3.542834389E+00+
*       2.3182084618E+02               0
GRID*               4468               02.5965148446E+00-4.121956249E+00+
*       2.3237036628E+02               0
GRID*               4469               05.3349269339E-01-5.566556380E+00+
*       2.2761351430E+02               0
GRID*               4470               07.6307028366E-01-4.756929312E+00+
*       2.3004328103E+02               0
GRID*               4471               0-8.542224609E-01-5.234252712E+00+
*       2.3300116016E+02               0
GRID*               4472               0-3.769119304E-01-3.378079440E+00+
*       2.3422278365E+02               0
GRID*               4473               01.0143914894E+00-5.624506001E+00+
*       2.3463814088E+02               0
GRID*               4474               07.6290418777E-01-4.756943025E+00+
*       2.3237036626E+02               0
GRID*               4475               0-6.283992320E-01-2.510516465E+00+
*       2.3195500903E+02               0
GRID*               4476               05.3980232411E+002.1139781633E+00+
*       2.4800926426E+02               0
GRID*               4477               05.3593774602E+001.6164073983E+00+
*       2.4514632762E+02               0
GRID*               4478               04.1302276184E+001.4670440449E+00+
*       2.4713706335E+02               0
GRID*               4479               03.9376532340E+00-2.975665911E+00+
*       2.3396789492E+02               0
GRID*               4480               03.9635120248E+00-3.077945803E-01+
*       2.3237222367E+02               0
GRID*               4481               02.8130508233E+001.1604628707E+00+
*       2.3291526691E+02               0
GRID*               4482               0-3.004193285E+001.3141072536E+00+
*       1.6123293669E+02               0
GRID*               4483               0-1.884764020E+00-1.437124439E-01+
*       1.6187469350E+02               0
GRID*               4484               0-3.447242717E+009.2717673287E-01+
*       1.6344739029E+02               0
GRID*               4485               0-1.415525747E+008.1664874257E-01+
*       1.6334485359E+02               0
GRID*               4486               01.0411625143E-011.7636108988E+00+
*       1.6184219718E+02               0
GRID*               4487               02.5346440863E+001.1839658866E-01+
*       2.6002624111E+02               0
GRID*               4488               02.5346474094E+001.1836974109E-01+
*       2.5660261780E+02               0
GRID*               4489               01.8970665654E+00-1.680906774E+00+
*       2.6002624111E+02               0
GRID*               4490               02.4166472420E+00-1.731505224E+00+
*       1.6152582055E+02               0
GRID*               4491               02.0132431794E+00-1.541851816E-01+
*       1.6153076237E+02               0
GRID*               4492               03.3208350067E+005.2220799366E+00+
*       2.4800926431E+02               0
GRID*               4493               01.5207742781E+005.8706519122E+00+
*       2.4800926431E+02               0
GRID*               4494               0-3.150063384E+004.4347330909E+00+
*       1.6206413618E+02               0
GRID*               4495               0-1.015313013E+003.2214305964E+00+
*       1.6120044038E+02               0
GRID*               4496               0-2.073470818E+004.9947647264E+00+
*       1.6277593338E+02               0
GRID*               4497               0-3.593112816E+004.0478025701E+00+
*       1.6427858979E+02               0
GRID*               4498               0-2.534955012E+002.2744684401E+00+
*       1.6270309679E+02               0
GRID*               4499               0-2.402569960E-015.6309075381E+00+
*       1.6277593339E+02               0
GRID*               4500               01.6659698211E+005.2653679999E+00+
*       1.6277593462E+02               0
GRID*               4501               02.1936218541E+005.0307694631E+00+
*       1.6523661175E+02               0
GRID*               4502               0-4.339229990E+001.0911932083E+00+
*       1.6844428164E+02               0
GRID*               4503               0-4.704931618E+00-8.149541439E-01+
*       1.6844427933E+02               0
GRID*               4504               0-4.863505989E+002.5793735746E+00+
*       1.6705307984E+02               0
GRID*               4505               0-5.229207617E+006.7322622243E-01+
*       1.6705307753E+02               0
GRID*               4506               0-4.104554112E+002.8538511918E+00+
*       1.7041983944E+02               0
GRID*               4507               0-4.652845368E+001.4176674401E+00+
*       1.7132232308E+02               0
GRID*               4508               0-2.243067823E+00-7.623485815E-01+
*       1.7057799543E+02               0
GRID*               4509               0-2.008391945E+001.0003094019E+00+
*       1.7255355323E+02               0
GRID*               4510               0-2.206533212E+00-4.581022945E+00+
*       6.0213862890E+01               0
GRID*               4511               0-4.092433189E+003.0260663978E+00+
*       1.7696180877E+02               0
GRID*               4512               0-4.652680514E+001.4180073764E+00+
*       1.7474210410E+02               0
GRID*               4513               0-4.104389258E+002.8541911281E+00+
*       1.7383962046E+02               0
GRID*               4514               0-1.448144620E+002.6083684234E+00+
*       1.7477325790E+02               0
GRID*               4515               02.7977011504E+003.8570787000E+00+
*       1.7394867258E+02               0
GRID*               4516               04.4366232368E-011.8728616331E+00+
*       1.7488231002E+02               0
GRID*               4517               09.1785027576E-014.7644607600E+00+
*       1.7696180877E+02               0
GRID*               4518               09.0589420678E-014.5925854903E+00+
*       1.7383962046E+02               0
GRID*               4519               04.3170625470E-011.7009863633E+00+
*       1.7176012171E+02               0
GRID*               4520               0-9.882735840E-015.1303533193E+00+
*       1.7696180666E+02               0
GRID*               4521               0-2.821611850E+004.4945611003E+00+
*       1.7696180668E+02               0
GRID*               4522               0-1.000229653E+004.9584780495E+00+
*       1.7383961835E+02               0
GRID*               4523               0-2.833567919E+004.3226858305E+00+
*       1.7383961836E+02               0
GRID*               4524               0-2.138575033E+00-3.036069382E+00+
*       2.3548289397E+02               0
GRID*               4525               0-3.885236318E-012.0845248487E+00+
*       2.3597639192E+02               0
GRID*               4526               06.3988423032E-01-3.959476402E+00+
*       2.3815746905E+02               0
GRID*               4527               0-1.121778873E+00-3.617466344E+00+
*       2.3941757937E+02               0
GRID*               4528               02.6429953792E+00-2.967119347E+00+
*       2.3822363326E+02               0
GRID*               4529               0-2.974730341E+004.7005193427E+00+
*       2.4285171542E+02               0
GRID*               4530               0-4.156889165E-012.0923419491E+00+
*       2.4092418763E+02               0
GRID*               4531               0-3.902732832E+003.6018597130E+00+
*       2.2998173376E+02               0
GRID*               4532               0-3.302212774E+005.1886916300E-01+
*       2.2900882523E+02               0
GRID*               4533               0-3.604056023E+003.1275255088E+00+
*       2.2778943844E+02               0
GRID*               4534               0-2.680171891E+005.0304263461E+00+
*       2.2969998947E+02               0
GRID*               4535               0-2.079651833E+001.9474357961E+00+
*       2.2872708094E+02               0
GRID*               4536               01.4320836193E-01-2.496811123E+00+
*       2.7103768604E+02               0
GRID*               4537               06.1832447764E-014.5767299071E+00+
*       2.3349956546E+02               0
GRID*               4538               01.0596532443E+005.2987349211E+00+
*       2.3202707377E+02               0
GRID*               4539               0-1.287753097E+004.9435029391E+00+
*       2.3349956637E+02               0
GRID*               4540               01.2818690236E+005.4607814005E+00+
*       2.3487651403E+02               0
GRID*               4541               0-6.242085511E-015.8275544325E+00+
*       2.3487651494E+02               0
GRID*               4542               0-1.374880689E+003.2903780988E+00+
*       2.3495956391E+02               0
GRID*               4543               0-3.121363754E+004.3085161628E+00+
*       2.3349956639E+02               0
GRID*               4544               0-4.392779222E+002.8407003979E+00+
*       2.3349956546E+02               0
GRID*               4545               0-2.680034987E+005.0305211768E+00+
*       2.3202707470E+02               0
GRID*               4546               0-3.951450455E+003.5627054119E+00+
*       2.3202707377E+02               0
GRID*               4547               05.8497276657E-015.4233738652E+00+
*       2.2791363650E+02               0
GRID*               4548               0-8.465904263E-015.6654942402E+00+
*       2.2969998945E+02               0
GRID*               4549               0-8.464243304E-015.6655079531E+00+
*       2.3202707468E+02               0
GRID*               4550               0-1.369323895E+005.0812330088E+00+
*       2.4681707920E+02               0
GRID*               4551               0-3.852303040E-016.2376271935E+00+
*       2.4800926435E+02               0
GRID*               4552               0-2.218914130E+005.6028461603E+00+
*       2.4800926436E+02               0
GRID*               4553               04.6435993097E-015.7160140420E+00+
*       2.4681707919E+02               0
GRID*               4554               03.2821892258E+004.7245091717E+00+
*       2.4514632767E+02               0
GRID*               4555               02.3703645131E+005.3490387607E+00+
*       2.4681707915E+02               0
GRID*               4556               0-4.128494004E+00-2.105211117E+00+
*       4.2660612462E+01               0
GRID*               4557               0-4.715700984E+00-2.557424151E-01+
*       4.2660612465E+01               0
GRID*               4558               0-4.620090821E+00-8.926762942E-01+
*       4.6392928135E+01               0
GRID*               4559               0-4.032883841E+00-2.742144996E+00+
*       4.6392928133E+01               0
GRID*               4560               0-1.843686833E+00-8.055790904E-01+
*       4.5111136235E+01               0
GRID*               4561               04.4415221535E+002.0511241302E+00+
*       6.3413615253E+01               0
GRID*               4562               02.1505380638E+00-4.841462347E+00+
*       2.4330402907E+02               0
GRID*               4563               04.0486776913E+00-4.023459031E+00+
*       2.4332514113E+02               0
GRID*               4564               03.9990548339E+00-4.188471713E+00+
*       2.4127995890E+02               0
GRID*               4565               01.9457719683E+00-2.818896600E+00+
*       2.4261157232E+02               0
GRID*               4566               03.8439115958E+00-2.000893284E+00+
*       2.4263268437E+02               0
GRID*               4567               05.2128691278E+00-1.506727403E+00+
*       2.3831967899E+02               0
GRID*               4568               04.1193584198E+00-3.521825311E+00+
*       2.3682743192E+02               0
GRID*               4569               05.2706517790E+00-2.720611930E+00+
*       2.3919130081E+02               0
GRID*               4570               0-2.960071174E+00-3.750075984E+00+
*       1.8987612548E+02               0
GRID*               4571               0-1.053667642E+00-4.116226364E+00+
*       1.8987613024E+02               0
GRID*               4572               0-2.959862393E+00-3.750177267E+00+
*       1.8600085129E+02               0
GRID*               4573               03.9299607582E+00-8.979237513E-01+
*       2.4157691041E+02               0
GRID*               4574               05.3202185057E+00-2.555714793E+00+
*       2.4332514091E+02               0
GRID*               4575               05.4062676681E+00-1.452745260E+00+
*       2.4226936695E+02               0
GRID*               4576               05.2705956483E+00-2.720727475E+00+
*       2.4127995868E+02               0
GRID*               4577               05.6122020185E+00-8.175394593E-01+
*       2.4127995857E+02               0
GRID*               4578               02.7296015555E+003.5480935089E+00+
*       1.7742466134E+02               0
GRID*               4579               02.7299260606E+003.5479360962E+00+
*       1.8126339671E+02               0
GRID*               4580               09.1817478085E-014.7643033474E+00+
*       1.8080054414E+02               0
GRID*               4581               05.5554138147E-013.2143687310E+00+
*       1.8270725995E+02               0
GRID*               4582               0-1.350749961E+003.5804186057E+00+
*       1.8270726195E+02               0
GRID*               4583               0-3.184109621E+002.9447044995E+00+
*       1.8270726198E+02               0
GRID*               4584               0-9.881165621E-015.1303532221E+00+
*       1.8080054614E+02               0
GRID*               4585               0-2.821476222E+004.4946391159E+00+
*       1.8080054618E+02               0
GRID*               4586               0-4.454909176E+001.4764562865E+00+
*       1.8270725995E+02               0
GRID*               4587               0-4.092275776E+003.0263909029E+00+
*       1.8080054414E+02               0
GRID*               4588               0-4.455066588E+001.4761317814E+00+
*       1.7886852458E+02               0
GRID*               4589               02.7126518208E+00-4.437642123E+00+
*       1.7432830436E+02               0
GRID*               4590               08.7967698339E-01-5.073408264E+00+
*       1.7090852312E+02               0
GRID*               4591               0-5.448685786E+00-5.958730342E-03+
*       1.9174332280E+01               0
GRID*               4592               0-4.575383189E+007.1040237727E-02+
*       2.3459387810E+01               0
GRID*               4593               0-3.988067948E+00-1.778404285E+00+
*       2.3459387818E+01               0
GRID*               4594               0-2.531950223E+004.0834796251E-01+
*       2.1794086759E+01               0
GRID*               4595               0-4.128445770E+00-2.105291892E+00+
*       3.8814491617E+01               0
GRID*               4596               0-2.693965604E+00-3.414370125E+00+
*       3.8814490037E+01               0
GRID*               4597               0-4.308078698E+00-2.064999911E+00+
*       3.4479745644E+01               0
GRID*               4598               0-2.118929923E+00-1.283532307E-01+
*       3.7044074591E+01               0
GRID*               4599               0-2.873598532E+00-3.374078145E+00+
*       3.4479744064E+01               0
GRID*               4600               04.4909401352E+00-1.771747053E+00+
*       1.8565891612E+01               0
GRID*               4601               03.3944868341E+00-2.780668235E+00+
*       2.2647281861E+01               0
GRID*               4602               04.7035892530E+00-1.345984601E+00+
*       2.2647282416E+01               0
GRID*               4603               02.5341690494E+003.3038934651E-01+
*       2.0373539570E+01               0
GRID*               4604               0-5.418664445E-011.1798794443E-01+
*       1.6900589998E+01               0
GRID*               4605               03.1819565924E+00-3.206354766E+00+
*       1.5182261994E+01               0
GRID*               4606               02.5738416127E+00-5.683575461E-01+
*       1.3523400610E+01               0
GRID*               4607               03.4342782736E+00-3.679339206E+00+
*       1.2413513837E+01               0
GRID*               4608               01.5192379320E+00-4.823071586E+00+
*       1.2650939475E+01               0
GRID*               4609               06.5880127119E-01-1.712089926E+00+
*       1.3760826248E+01               0
GRID*               4610               09.1112295232E-01-2.185074366E+00+
*       1.0992078092E+01               0
GRID*               4611               0-2.553523772E+00-3.087434652E+00+
*       2.7271139911E+01               0
GRID*               4612               0-6.577539301E-01-3.503381340E+00+
*       2.7271140529E+01               0
GRID*               4613               0-1.905614714E+00-4.555958169E+00+
*       2.5720655607E+01               0
GRID*               4614               0-1.010738568E+00-9.831765867E-01+
*       2.4528657985E+01               0
GRID*               4615               0-9.844872297E-03-4.971904857E+00+
*       2.5720656224E+01               0
GRID*               4616               01.1916971490E+00-2.916098067E+00+
*       2.7271140546E+01               0
GRID*               4617               05.4408527050E-016.2074936459E-01+
*       2.5267036332E+01               0
GRID*               4618               03.3944300456E+00-2.780695633E+00+
*       2.6459034588E+01               0
GRID*               4619               01.8396062068E+00-4.384621584E+00+
*       2.5720656241E+01               0
GRID*               4620               01.1919943283E+00-8.477741527E-01+
*       2.3716552027E+01               0
GRID*               4621               04.6003044694E+006.5520900247E-02+
*       3.8300712290E+01               0
GRID*               4622               04.0314193599E+001.9169706349E+00+
*       3.8300713688E+01               0
GRID*               4623               09.5854233960E-014.8619011467E+00+
*       2.0704213471E+02               0
GRID*               4624               0-9.478146377E-015.2282514055E+00+
*       2.0704213960E+02               0
GRID*               4625               01.1970873794E+004.6496983114E+00+
*       2.0401999594E+02               0
GRID*               4626               0-1.118036660E+002.7637833838E+00+
*       2.0514994840E+02               0
GRID*               4627               0-7.092695979E-015.0160485703E+00+
*       2.0402000083E+02               0
GRID*               4628               02.9775226573E+003.6506405260E+00+
*       2.0723005161E+02               0
GRID*               4629               02.7340253296E+002.0657754737E+00+
*       2.0927202443E+02               0
GRID*               4630               03.0301690519E+005.1629510220E+00+
*       2.0795415507E+02               0
GRID*               4631               03.0303149981E+005.1628803919E+00+
*       2.1118988899E+02               0
GRID*               4632               02.5738007569E+002.0089802688E+00+
*       2.1237427173E+02               0
GRID*               4633               02.8174440308E+003.5937746910E+00+
*       2.1356803282E+02               0
GRID*               4634               01.6766011640E+004.8973316457E+00+
*       2.1268559328E+02               0
GRID*               4635               0-4.697370304E+001.3266735567E+00+
*       2.1676410535E+02               0
GRID*               4636               0-4.697442065E+001.3265255415E+00+
*       2.1379709806E+02               0
GRID*               4637               0-4.528378538E+002.8270058221E+00+
*       2.1695751085E+02               0
GRID*               4638               0-2.478217550E+008.7942507647E-01+
*       2.1540395154E+02               0
GRID*               4639               0-4.528450299E+002.8268578069E+00+
*       2.1399050356E+02               0
GRID*               4640               0-1.431397630E-01-9.051631054E-02+
*       2.1498148080E+02               0
GRID*               4641               02.5852002657E-021.4098159549E+00+
*       2.1517488630E+02               0
GRID*               4642               0-3.257390674E+004.2947968223E+00+
*       2.1399050748E+02               0
GRID*               4643               0-3.577888645E+001.2106803738E+00+
*       1.1584196141E+02               0
GRID*               4644               0-2.500465279E+002.1695389284E+00+
*       1.1390396614E+02               0
GRID*               4645               01.2265935620E+00-2.992773688E+00+
*       2.9880605486E+02               0
GRID*               4646               02.9579920690E+00-2.178564906E+00+
*       2.9880605486E+02               0
GRID*               4647               02.9579631224E+00-2.178596710E+00+
*       2.9681579103E+02               0
GRID*               4648               0-5.062170550E+001.6184633797E+00+
*       1.1125412195E+02               0
GRID*               4649               0-3.805619436E+003.7896201584E+00+
*       1.1311152922E+02               0
GRID*               4650               0-2.208816252E+001.9572883574E+00+
*       1.1232074600E+02               0
GRID*               4651               0-2.036871905E+001.8502239290E+00+
*       1.1021495922E+02               0
GRID*               4652               02.7594792145E+004.5013715052E+00+
*       1.5649266556E+02               0
GRID*               4653               02.9331025834E+00-3.483600340E-02+
*       2.5405193919E+02               0
GRID*               4654               0-4.743823213E-015.7032746321E+00+
*       1.1100574286E+02               0
GRID*               4655               0-6.463266679E-015.8103390606E+00+
*       1.1311152963E+02               0
GRID*               4656               0-4.883005434E+002.8308338683E+00+
*       1.1739206239E+02               0
GRID*               4657               0-3.805582068E+003.7896924228E+00+
*       1.1545406712E+02               0
GRID*               4658               0-6.462389244E-015.8103439015E+00+
*       1.1545406743E+02               0
GRID*               4659               0-1.170363192E+005.7155579225E+00+
*       1.1808262189E+02               0
GRID*               4660               02.9331031895E+00-3.484042442E-02+
*       2.5158858034E+02               0
GRID*               4661               0-5.702075966E+006.7434068904E-01+
*       4.8223300656E+00               0
GRID*               4662               03.4411074589E-015.4872064907E+00+
*       1.0740979367E+00               0
GRID*               4663               0-2.371072277E-013.2800675365E+00+
*       8.3196207735E+00               0
GRID*               4664               0-5.683479491E+00-5.436800709E-01+
*       5.8817426645E+00               0
GRID*               4665               0-3.667953681E+00-8.124822582E-01+
*       5.6572386421E+00               0
GRID*               4666               0-3.686550156E+004.0553850175E-01+
*       4.5978260432E+00               0
GRID*               4667               0-4.045517672E+003.1099561062E+00+
*       9.5024021871E+00               0
GRID*               4668               0-5.267746224E+001.3521743770E+00+
*       8.1438532282E+00               0
GRID*               4669               0-5.286342699E+002.5701951370E+00+
*       7.0844406294E+00               0
GRID*               4670               0-5.683486714E+00-5.435632311E-01+
*       8.1438529035E+00               0
GRID*               4671               0-5.702083189E+006.7445752884E-01+
*       7.0844403046E+00               0
GRID*               4672               06.9786771270E-018.6546381726E-01+
*       1.0589695380E+01               0
GRID*               4673               01.8911883535E+001.3732617327E+00+
*       8.4845778468E+00               0
GRID*               4674               01.3285913596E+00-3.826914998E-01+
*       9.2024923497E+00               0
GRID*               4675               03.0619039410E-015.6399769540E+00+
*       7.3972843289E+00               0
GRID*               4676               02.2019280023E+005.2242364635E+00+
*       7.3972846537E+00               0
GRID*               4677               01.0086073615E+004.7164385480E+00+
*       9.5024021871E+00               0
GRID*               4678               0-8.871302467E-015.1321790386E+00+
*       9.5024018623E+00               0
GRID*               4679               0-5.061738264E+001.4927020788E+00+
*       1.2796269037E+01               0
GRID*               4680               0-5.061793432E+001.4925952966E+00+
*       1.0050113831E+01               0
GRID*               4681               0-4.045462504E+003.1100628884E+00+
*       1.2248557393E+01               0
GRID*               4682               0-3.723823037E+003.3243427102E+00+
*       1.5790703226E+01               0
GRID*               4683               0-5.032874980E+001.8896025751E+00+
*       1.5790703854E+01               0
GRID*               4684               0-2.736410561E+004.5448030235E+00+
*       1.2248556764E+01               0
GRID*               4685               0-2.417840345E+001.5518093077E+00+
*       1.3966884769E+01               0
GRID*               4686               09.8898522377E-013.6983664048E+00+
*       1.5182262000E+01               0
GRID*               4687               0-8.604366608E-013.1109816602E+00+
*       1.5182261994E+01               0
GRID*               4688               0-8.869886763E-015.1321877681E+00+
*       1.2248556770E+01               0
GRID*               4689               04.4554603157E-011.3384482577E+00+
*       1.3358443537E+01               0
GRID*               4690               04.6123777147E+00-1.694076892E+00+
*       5.9885035483E+01               0
GRID*               4691               04.5208621566E+00-7.999878762E-01+
*       5.6515160930E+01               0
GRID*               4692               0-2.598561591E+00-4.051196785E+00+
*       5.0158513915E+01               0
GRID*               4693               0-2.038311060E+00-1.092062535E+00+
*       5.2050983887E+01               0
GRID*               4694               0-2.888795980E+00-3.700746350E+00+
*       5.3366045895E+01               0
GRID*               4695               0-1.819761990E+00-4.894619915E+00+
*       5.3691103704E+01               0
GRID*               4696               0-9.692770698E-01-2.285936099E+00+
*       5.2376041695E+01               0
GRID*               4697               0-2.888886430E+00-3.700699062E+00+
*       5.7023521735E+01               0
GRID*               4698               0-1.819852440E+00-4.894572626E+00+
*       5.7348579543E+01               0
GRID*               4699               03.2117624650E+00-2.234279255E+00+
*       5.2857687133E+01               0
GRID*               4700               03.2346542773E+00-3.289293320E+00+
*       5.7348579543E+01               0
GRID*               4701               01.9255545857E+00-4.723584699E+00+
*       5.3691105746E+01               0
GRID*               4702               04.5209094451E+00-7.998974264E-01+
*       5.2857685091E+01               0
GRID*               4703               03.1693080952E-012.0336934482E-01+
*       5.1542623082E+01               0
GRID*               4704               04.5298504645E+00-7.398933675E-01+
*       4.9436920102E+01               0
GRID*               4705               04.5299011020E+00-7.397962720E-01+
*       4.5671332341E+01               0
GRID*               4706               02.2351976686E+00-6.441703555E-03+
*       4.7666635851E+01               0
GRID*               4707               0-6.904858051E-01-2.753495283E+00+
*       9.6124795772E+01               0
GRID*               4708               0-3.156359115E+00-4.706367018E+00+
*       9.2183375264E+01               0
GRID*               4709               0-2.474889795E+00-4.963346482E+00+
*       8.9183387995E+01               0
GRID*               4710               08.7659413779E-022.6882709741E-01+
*       8.7840633075E+01               0
GRID*               4711               01.9901868223E+00-5.301883455E+00+
*       9.8881541315E+01               0
GRID*               4712               07.1256409298E-01-3.658193405E+00+
*       9.7430606770E+01               0
GRID*               4713               02.7625815173E+00-4.675018824E+00+
*       9.5285853275E+01               0
GRID*               4714               04.2890127216E+00-1.294252949E+00+
*       9.4564290542E+01               0
GRID*               4715               04.2890568231E+00-1.294167695E+00+
*       9.1765830688E+01               0
GRID*               4716               04.0720880498E+00-3.240826457E+00+
*       9.5285852417E+01               0
GRID*               4717               01.7018834598E+00-1.084755266E+00+
*       9.3113356855E+01               0
GRID*               4718               04.0721321513E+00-3.240741203E+00+
*       9.2487392563E+01               0
GRID*               4719               02.6036918079E+004.0486941747E-01+
*       8.9794671129E+01               0
GRID*               4720               04.9739404994E+00-1.751116520E+00+
*       8.9168706837E+01               0
GRID*               4721               04.1440995369E+00-1.663700237E+00+
*       9.7590722086E+01               0
GRID*               4722               01.7738949469E+004.9237095366E-01+
*       9.5418226524E+01               0
GRID*               4723               01.5569702751E+00-1.454202554E+00+
*       9.6139788399E+01               0
GRID*               4724               01.8911126144E+00-5.225863115E+00+
*       1.3302418053E+02               0
GRID*               4725               02.0353170344E+00-5.323597680E+00+
*       1.3549973094E+02               0
GRID*               4726               05.0593240075E+00-1.700073625E+00+
*       1.3453389674E+02               0
GRID*               4727               05.6250472005E+002.2929060489E-01+
*       1.3240535835E+02               0
GRID*               4728               05.5197604346E+00-1.053696483E+00+
*       1.3297662444E+02               0
GRID*               4729               05.1212113979E+00-2.947278144E+00+
*       1.3090350086E+02               0
GRID*               4730               01.0423791569E-01-4.183832408E+00+
*       1.3007743032E+02               0
GRID*               4731               02.4737916698E+001.4633446318E+00+
*       8.5226274437E+01               0
GRID*               4732               0-7.430838547E-011.3547351640E+00+
*       8.3203514233E+01               0
GRID*               4733               02.4342090653E+002.0234879186E+00+
*       8.1833281166E+01               0
GRID*               4734               0-7.135310749E-021.4598154634E+00+
*       8.0576650328E+01               0
GRID*               4735               08.5367053044E-019.0556824573E-02+
*       8.2978000838E+01               0
GRID*               4736               01.4338854312E+004.2801848695E+00+
*       7.9751163194E+01               0
GRID*               4737               02.8100005963E+002.2634177770E+00+
*       7.8633681443E+01               0
GRID*               4738               06.5868422124E-015.2354656213E+00+
*       8.1172883625E+01               0
GRID*               4739               03.3296018086E+003.8638496052E+00+
*       7.9751161802E+01               0
GRID*               4740               02.9301921297E+005.0590602152E+00+
*       7.7973282509E+01               0
GRID*               4741               0-1.190878840E+004.6485550355E+00+
*       8.1172883627E+01               0
GRID*               4742               0-1.247344322E+004.8547601065E+00+
*       9.5567411159E+01               0
GRID*               4743               04.1186999511E+002.4511006204E+00+
*       9.1765831715E+01               0
GRID*               4744               04.1187585032E+002.4510112442E+00+
*       9.4564291400E+01               0
GRID*               4745               03.9321122387E+003.7155077924E+00+
*       9.5567411159E+01               0
GRID*               4746               03.9320536866E+003.7155971686E+00+
*       9.2768951474E+01               0
GRID*               4747               06.0216647139E-015.4414997890E+00+
*       9.2768951465E+01               0
GRID*               4748               0-4.146034429E-015.4783981895E+00+
*       8.9976601108E+01               0
GRID*               4749               0-3.019242589E+00-9.381934628E-02+
*       2.8604022807E+02               0
GRID*               4750               0-2.204391884E+00-1.825613195E+00+
*       2.8345680977E+02               0
GRID*               4751               0-3.019241905E+00-9.378828632E-02+
*       2.8345681067E+02               0
GRID*               4752               03.9738453185E+002.0815639561E+00+
*       9.7590722945E+01               0
GRID*               4753               0-2.736528668E+004.5447248042E+00+
*       9.5024018514E+00               0
GRID*               4754               0-1.358666991E+005.1075882692E+00+
*       1.2565105596E+02               0
GRID*               4755               0-3.208372502E+004.5211093008E+00+
*       1.2565105598E+02               0
GRID*               4756               0-2.072894202E-015.6818759259E+00+
*       1.2464606478E+02               0
GRID*               4757               0-1.226071748E+003.2972038052E+00+
*       1.2468093744E+02               0
GRID*               4758               05.0106202423E+002.1036284442E+00+
*       1.2397925071E+02               0
GRID*               4759               0-1.631144404E-014.1835643945E+00+
*       1.2612917895E+02               0
GRID*               4760               0-1.295846228E+003.1285595146E+00+
*       1.2272340864E+02               0
GRID*               4761               0-5.936497600E-012.5760064647E+00+
*       1.2068062834E+02               0
GRID*               4762               05.0105764488E+002.1036957379E+00+
*       1.2179412806E+02               0
GRID*               4763               0-2.957096838E-015.9939488584E+00+
*       1.2709929746E+02               0
GRID*               4764               02.3903887852E+004.7126062114E+00+
*       1.2041816163E+02               0
GRID*               4765               04.0648928603E+00-3.841130416E+00+
*       1.1763157105E+02               0
GRID*               4766               0-3.020595132E+00-4.622634799E+00+
*       1.2081694672E+02               0
GRID*               4767               0-4.454663159E+00-3.312936405E+00+
*       1.2081694696E+02               0
GRID*               4768               0-3.696495005E+00-4.193732791E+00+
*       1.2231983252E+02               0
GRID*               4769               0-3.231981674E+00-4.753552404E+00+
*       1.2513532065E+02               0
GRID*               4770               0-1.492960406E+00-5.447081729E+00+
*       1.2686618796E+02               0
GRID*               4771               0-2.262494101E+00-5.503396466E+00+
*       1.2450495502E+02               0
GRID*               4772               0-3.669452404E-01-5.920147850E+00+
*       1.2450495515E+02               0
GRID*               4773               01.4827602701E+00-5.333668882E+00+
*       1.2450495518E+02               0
GRID*               4774               01.8149235446E-01-5.408943081E+00+
*       1.7740858244E+02               0
GRID*               4775               05.4693065086E+00-1.119488871E-01+
*       7.3970333618E+00               0
GRID*               4776               05.0719980349E+00-2.005822674E+00+
*       7.3970332874E+00               0
GRID*               4777               0-3.783064327E+00-1.911754213E+00+
*       1.4631377512E+02               0
GRID*               4778               0-3.318316925E+00-4.886616695E+00+
*       1.4894862929E+02               0
GRID*               4779               0-1.578438747E+00-3.714608590E+00+
*       1.4824643416E+02               0
GRID*               4780               0-2.020890474E+00-2.640819813E-01+
*       1.5508324130E+02               0
GRID*               4781               0-1.983165457E+00-2.225490011E+00+
*       1.4071512337E+02               0
GRID*               4782               0-5.032957193E-012.0154865365E+00+
*       1.4785636527E+02               0
GRID*               4783               01.3291058414E+007.1898984290E-01+
*       1.4809491829E+02               0
GRID*               4784               01.5242834002E+005.7986976696E-01+
*       1.5025746028E+02               0
GRID*               4785               0-4.899300906E-013.8666182932E+00+
*       1.4703482698E+02               0
GRID*               4786               01.0190652305E-011.4607014647E-01+
*       2.0566394431E+02               0
GRID*               4787               09.0094365720E-011.5525227631E+00+
*       2.0533786530E+02               0
GRID*               4788               0-1.678528755E+001.1451279319E+00+
*       2.0245388865E+02               0
GRID*               4789               02.9107707290E+004.0370272843E+00+
*       1.9998173086E+02               0
GRID*               4790               02.9109351304E+004.0369476801E+00+
*       2.0348253982E+02               0
GRID*               4791               01.1969229780E+004.6497779156E+00+
*       2.0051918698E+02               0
GRID*               4792               0-4.612690982E+001.5061708474E+00+
*       2.0434607496E+02               0
GRID*               4793               0-4.612770586E+001.5060064460E+00+
*       2.0084526600E+02               0
GRID*               4794               0-3.813653847E+002.9126234640E+00+
*       2.0401999594E+02               0
GRID*               4795               0-3.813733452E+002.9124590626E+00+
*       2.0051918698E+02               0
GRID*               4796               02.4992638266E+007.4621050954E-01+
*       1.9727162386E+02               0
GRID*               4797               0-2.781252622E+004.5927842496E+00+
*       2.0704213960E+02               0
GRID*               4798               0-2.542707582E+004.3805814143E+00+
*       2.0402000083E+02               0
GRID*               4799               0-4.052198887E+003.1248262993E+00+
*       2.0704213471E+02               0
GRID*               4800               0-3.432574592E+003.2060676543E+00+
*       6.4350735459E+01               0
GRID*               4801               0-3.432678687E+003.2060004042E+00+
*       6.0822157617E+01               0
GRID*               4802               0-1.817284367E+004.4103276766E+00+
*       6.4281205141E+01               0
GRID*               4803               0-1.817388462E+004.4102604265E+00+
*       6.0752627298E+01               0
GRID*               4804               02.5277799820E+003.4000526963E-02+
*       6.4527667627E+01               0
GRID*               4805               04.4043327298E+002.0240510300E+00+
*       6.6959739517E+01               0
GRID*               4806               03.3623404008E+003.2718775426E+00+
*       6.4281205141E+01               0
GRID*               4807               01.4485982293E+001.2547539394E+00+
*       6.5395257515E+01               0
GRID*               4808               03.3622731507E+003.2719816377E+00+
*       6.0752627298E+01               0
GRID*               4809               01.9279166559E+004.5811832378E+00+
*       6.0752625371E+01               0
GRID*               4810               03.2115712756E-024.9973521367E+00+
*       6.0752627303E+01               0
GRID*               4811               01.8233653842E-015.2677497665E+00+
*       5.7704718740E+01               0
GRID*               4812               0-5.158049186E+00-1.241570338E-01+
*       6.0822157622E+01               0
GRID*               4813               0-4.910334635E+00-5.419932875E-01+
*       5.7023523667E+01               0
GRID*               4814               0-2.576260000E+00-3.237758465E-01+
*       5.9057149822E+01               0
GRID*               4815               0-4.323242925E+00-2.391497462E+00+
*       5.7023523662E+01               0
GRID*               4816               0-3.390429902E+00-3.516174283E+00+
*       6.6733769709E+01               0
GRID*               4817               03.2657791283E+00-3.155641012E+00+
*       7.0345760974E+01               0
GRID*               4818               03.2658825958E+00-3.155573737E+00+
*       6.6959739517E+01               0
GRID*               4819               01.7890913975E+00-4.654691692E+00+
*       7.0119791166E+01               0
GRID*               4820               01.0973859383E+00-1.781190219E+00+
*       7.0806525410E+01               0
GRID*               4821               0-6.045217635E-02-5.241661633E+00+
*       7.0119791167E+01               0
GRID*               4822               02.3030934465E-02-5.530728598E+00+
*       7.3078494493E+01               0
GRID*               4823               0-3.723704161E+003.3244186317E+00+
*       1.9174332289E+01               0
GRID*               4824               0-1.488642518E+004.9240166836E+00+
*       1.9942749990E+01               0
GRID*               4825               0-1.170191178E+001.9309470463E+00+
*       1.8277448932E+01               0
GRID*               4826               0-1.488761394E+004.9239407621E+00+
*       1.6559120927E+01               0
GRID*               4827               0-5.707297287E-01-2.789125519E-01+
*       1.3906155181E+01               0
GRID*               4828               02.8846880437E+003.2825620165E+00+
*       1.5182262622E+01               0
GRID*               4829               02.2563633106E+005.0955211185E+00+
*       1.6559121556E+01               0
GRID*               4830               03.6066049070E-015.5113255067E+00+
*       1.6559120933E+01               0
GRID*               4831               01.6931951985E+001.7175859963E+00+
*       1.7669007700E+01               0
GRID*               4832               0-1.000957041E+003.9887328412E+00+
*       2.3459387810E+01               0
GRID*               4833               0-2.968885803E-012.0079460144E+00+
*       2.2562504461E+01               0
GRID*               4834               04.3194281788E+001.9735100738E+00+
*       1.5182261994E+01               0
GRID*               4835               03.6911034458E+003.7864691757E+00+
*       1.6559120927E+01               0
GRID*               4836               04.3195041003E+001.9733911977E+00+
*       1.8565891057E+01               0
GRID*               4837               04.5321532180E+002.3991536498E+00+
*       2.2647281861E+01               0
GRID*               4838               03.6911793672E+003.7863502996E+00+
*       1.9942749990E+01               0
GRID*               4839               03.3888796476E+001.2014230486E-01+
*       2.4958322939E+02               0
GRID*               4840               02.7512773520E+00-1.679152690E+00+
*       2.4958322939E+02               0
GRID*               4841               02.9700980895E+003.3332583974E+00+
*       7.0345759389E+01               0
GRID*               4842               02.6780795951E+002.6799792412E-01+
*       7.1380199491E+01               0
GRID*               4843               01.9359503520E-011.5033071861E+00+
*       7.1022647284E+01               0
GRID*               4844               0-2.439565055E+004.6577172276E+00+
*       6.6976656479E+01               0
GRID*               4845               0-1.646192230E+00-1.621935983E+00+
*       5.8448857023E+01               0
GRID*               4846               0-3.184964136E+002.7881641504E+00+
*       5.7023523662E+01               0
GRID*               4847               0-1.667167636E+004.6806580563E+00+
*       5.7704718734E+01               0
GRID*               4848               01.9960590433E+00-5.180749434E+00+
*       2.3912513711E+02               0
GRID*               4849               01.9959436850E+00-5.180828768E+00+
*       2.4121379469E+02               0
GRID*               4850               03.9991701921E+00-4.188392379E+00+
*       2.3919130132E+02               0
GRID*               4851               03.8609886572E+00-4.476536017E+00+
*       -9.432795578E-01               0
GRID*               4852               02.1918436577E+00-5.223660669E+00+
*       1.0442217081E+00               0
GRID*               4853               02.0098461621E+00-3.383250493E+00+
*       1.0094215031E-01               0
GRID*               4854               0-4.243970503E+00-3.965703243E+00+
*       -3.452160493E+00               0
GRID*               4855               0-2.898267062E+00-1.914365512E+00+
*       -1.919169942E+00               0
GRID*               4856               0-2.824633096E+00-5.385040650E+00+
*       -3.452160493E+00               0
GRID*               4857               0-1.892958227E+00-3.031723424E+00+
*       -3.452160493E+00               0
GRID*               4858               01.9273673521E+005.0066025928E+00+
*       1.0116501534E+02               0
GRID*               4859               01.9272855281E+005.0066449086E+00+
*       9.8497460111E+01               0
GRID*               4860               03.3614778957E+003.6971383761E+00+
*       9.8497460969E+01               0
GRID*               4861               0-2.711249139E-01-4.330978476E+00+
*       -3.452160493E+00               0
GRID*               4862               0-8.877602061E-01-5.903830354E+00+
*       -3.452160493E+00               0
GRID*               4863               03.9501245047E+00-4.788954370E+00+
*       2.4800926436E+02               0
GRID*               4864               02.1504311091E+00-4.841535516E+00+
*       2.4532708561E+02               0
GRID*               4865               01.8969485938E+00-3.419306088E+00+
*       2.4731782125E+02               0
GRID*               4866               03.7950882213E+00-2.601302772E+00+
*       2.4733893330E+02               0
GRID*               4867               04.0485707366E+00-4.023532200E+00+
*       2.4534819766E+02               0
GRID*               4868               0-3.383407479E+00-4.229309545E+00+
*       2.4121014919E+02               0
GRID*               4869               0-1.697005388E+00-2.591801882E+00+
*       2.4254176282E+02               0
GRID*               4870               0-1.589146893E+00-5.109394896E+00+
*       2.4330402886E+02               0
GRID*               4871               0-1.743741272E+00-5.448761317E+00+
*       2.4121379448E+02               0
GRID*               4872               0-1.851599766E+00-2.931168304E+00+
*       2.4045152844E+02               0
GRID*               4873               0-5.733918056E-02-3.811253654E+00+
*       2.4254540811E+02               0
GRID*               4874               0-4.851151717E+00-2.957768730E+00+
*       2.4121014940E+02               0
GRID*               4875               0-3.736819400E+00-1.190339380E+00+
*       2.4257013934E+02               0
GRID*               4876               0-5.096705143E+00-2.436391579E+00+
*       2.4333240560E+02               0
GRID*               4877               0-3.056891131E+00-3.837854081E+00+
*       2.4330402907E+02               0
GRID*               4878               05.8234050940E+00-2.315006109E-01+
*       2.5803674840E+00               0
GRID*               4879               05.8233939582E+00-2.314160460E-01+
*       5.5244490036E-01               0
GRID*               4880               05.4261935509E+00-2.125305326E+00+
*       5.5244490036E-01               0
GRID*               4881               04.5543023018E+00-1.417041852E+00+
*       2.1356803282E+02               0
GRID*               4882               04.8954093204E+004.8621114125E-01+
*       2.1356803259E+02               0
GRID*               4883               04.7571720175E+00-1.292204538E+00+
*       2.1122349137E+02               0
GRID*               4884               04.4160649989E+00-3.195457532E+00+
*       2.1122349159E+02               0
GRID*               4885               02.6147914082E+009.3977213178E-01+
*       2.0480040918E+02               0
GRID*               4886               01.1043637777E+00-9.566586238E-01+
*       2.0412588297E+02               0
GRID*               4887               02.3168189078E+003.5621399861E+00+
*       1.8571171976E+02               0
GRID*               4888               0-4.001778234E-012.8145715542E-02+
*       1.8471333763E+02               0
GRID*               4889               01.7742068558E+003.6171308075E-01+
*       1.8326947440E+02               0
GRID*               4890               04.1052756489E-013.9281898609E+00+
*       1.8571172176E+02               0
GRID*               4891               0-1.165850012E-012.6480261163E-01+
*       1.7266260534E+02               0
GRID*               4892               02.9896098240E-015.1636545345E+00+
*       1.9758963661E+02               0
GRID*               4893               0-5.018573073E+00-4.881164834E-01+
*       1.7474210198E+02               0
GRID*               4894               0-4.820959148E+00-4.299920783E-01+
*       1.7886852246E+02               0
GRID*               4895               04.2661958529E+002.5862573612E+00+
*       1.7394867048E+02               0
GRID*               4896               04.1980962580E+002.2772721701E+00+
*       1.7742465924E+02               0
GRID*               4897               02.2554136034E+006.5649438193E-01+
*       1.7534516259E+02               0
GRID*               4898               0-5.627996488E+001.2689520817E+00+
*       1.4894832413E+02               0
GRID*               4899               0-5.211063618E+003.1643856111E+00+
*       1.4697404414E+02               0
GRID*               4900               05.7144955808E+00-1.318062921E+00+
*       -3.443279558E+00               0
GRID*               4901               05.1698838270E+00-3.041720813E+00+
*       -9.432795578E-01               0
GRID*               4902               05.8682556492E+00-7.498962633E-01+
*       -1.256680486E+00               0
GRID*               4903               06.4128674030E+009.7376162923E-01+
*       -3.756680486E+00               0
GRID*               4904               04.3773629838E+00-3.443012913E-01+
*       -2.199960044E+00               0
GRID*               4905               02.5056760599E+004.2306713273E+00+
*       -3.636891545E+00               0
GRID*               4906               01.8226679441E+003.5143651175E+00+
*       -2.120467064E+00               0
GRID*               4907               02.6877638145E+002.6566013898E+00+
*       -3.483575518E+00               0
GRID*               4908               04.2232533681E+002.6602154290E+00+
*       -3.756680486E+00               0
GRID*               4909               03.3581574978E+003.5179791567E+00+
*       -2.393572031E+00               0
GRID*               4910               03.5402452524E+001.9439092192E+00+
*       -2.240256004E+00               0
GRID*               4911               04.4747402926E+004.3299719257E+00+
*       -3.756680486E+00               0
GRID*               4912               05.8940776995E+002.9106345189E+00+
*       -3.756680486E+00               0
GRID*               4913               06.2654560566E+001.1439930162E+00+
*       -1.256680486E+00               0
GRID*               4914               04.6336727077E+005.7211419626E-01+
*       -7.042355857E-01               0
GRID*               4915               05.6963404997E+002.9952547056E+00+
*       -1.256680486E+00               0
GRID*               4916               02.3716550317E+006.0580251971E-01+
*       -3.483575518E+00               0
GRID*               4917               03.9071445854E+006.0941655894E-01+
*       -3.756680486E+00               0
GRID*               4918               03.0584654405E+00-3.312405546E-01+
*       1.5167361494E+02               0
GRID*               4919               04.7452752787E+00-1.010860842E+00+
*       1.5002212496E+02               0
GRID*               4920               0-5.593543837E+004.6840456307E-01+
*       1.5103367422E+02               0
GRID*               4921               05.3369823106E+00-2.244597603E+00+
*       1.4864905751E+02               0
GRID*               4922               04.0271386428E+00-3.678470455E+00+
*       1.4667477751E+02               0
GRID*               4923               02.0332486977E+00-5.317027415E+00+
*       1.4732352487E+02               0
GRID*               4924               02.8690825744E+005.1974715961E-01+
*       1.5309682203E+02               0
GRID*               4925               03.5300207321E+00-8.806435813E-01+
*       1.5482057244E+02               0
GRID*               4926               01.5659638024E+001.4497916988E+00+
*       1.4524913692E+02               0
GRID*               4927               01.5513293338E+00-4.969549202E+00+
*       1.4479521873E+02               0
GRID*               4928               0-2.984336590E-01-5.555850471E+00+
*       1.4479521872E+02               0
GRID*               4929               01.8348570486E-01-5.903328684E+00+
*       1.4732352486E+02               0
GRID*               4930               01.0286022697E+004.7306863592E+00+
*       4.9436922149E+01               0
GRID*               4931               02.3908793090E+001.9092557181E+00+
*       5.0821029268E+01               0
GRID*               4932               0-1.308886033E+004.5561488892E+00+
*       5.0225515806E+01               0
GRID*               4933               06.2332025289E-021.7947223069E+00+
*       4.8188857936E+01               0
GRID*               4934               04.6003211384E+006.5394263700E-02+
*       4.2146832686E+01               0
GRID*               4935               04.2026130256E+00-1.828424812E+00+
*       4.2146832555E+01               0
GRID*               4936               04.9276092149E+001.1540228033E+00+
*       4.5671332472E+01               0
GRID*               4937               02.8935105993E+00-3.262844157E+00+
*       4.2146834533E+01               0
GRID*               4938               01.0440418972E+00-3.850051137E+00+
*       4.2146834536E+01               0
GRID*               4939               01.2067073139E+00-4.737124078E+00+
*       4.5937705894E+01               0
GRID*               4940               01.9079095922E+00-1.095070243E+00+
*       4.4142136065E+01               0
GRID*               4941               0-5.183894346E+00-1.914469019E+00+
*       1.1517988033E+02               0
GRID*               4942               0-5.183846336E+00-1.914542538E+00+
*       1.1283734253E+02               0
GRID*               4943               0-4.979041241E+00-4.001861299E-01+
*       2.0434607985E+02               0
GRID*               4944               0-2.011616474E+008.8835933644E-02+
*       4.8910451749E+01               0
GRID*               4945               03.2587182887E-012.6337340365E-01+
*       4.8121858093E+01               0
GRID*               4946               02.3026166612E-019.0030728279E-01+
*       4.4389542422E+01               0
GRID*               4947               0-2.107226637E+007.2576981279E-01+
*       4.5178136078E+01               0
GRID*               4948               09.8922212674E-01-3.691467521E+00+
*       3.4776596996E+01               0
GRID*               4949               02.8386781079E+00-3.104213643E+00+
*       3.4776596999E+01               0
GRID*               4950               09.8927870487E-01-3.691471176E+00+
*       3.0883085049E+01               0
GRID*               4951               0-9.777115424E-01-3.790085430E+00+
*       3.0586233694E+01               0
GRID*               4952               0-9.777681206E-01-3.790081776E+00+
*       3.4479745640E+01               0
GRID*               4953               0-3.315726035E-011.0553004277E-02+
*       3.3006179974E+01               0
GRID*               4954               0-2.766593377E-01-1.480292762E-01+
*       3.6530296663E+01               0
GRID*               4955               01.0441353925E+00-3.850049802E+00+
*       3.8300713684E+01               0
GRID*               4956               01.6903309096E+00-4.941502182E-02+
*       3.6827148018E+01               0
GRID*               4957               02.5969391939E+003.2260488684E+00+
*       3.8300712108E+01               0
GRID*               4958               07.0110878289E-013.6420524995E+00+
*       3.8300713684E+01               0
GRID*               4959               02.5420259281E+003.3846311489E+00+
*       3.4776595419E+01               0
GRID*               4960               06.4619551709E-013.8006347800E+00+
*       3.4776596996E+01               0
GRID*               4961               0-2.873481384E+00-3.374138742E+00+
*       3.0586233076E+01               0
GRID*               4962               0-1.978605238E+001.9864284022E-01+
*       2.9394235454E+01               0
GRID*               4963               0-1.161499115E-022.9725709463E-01+
*       2.9691086809E+01               0
GRID*               4964               02.8387297839E+00-3.104187903E+00+
*       3.0883085066E+01               0
GRID*               4965               02.1911179055E+004.3265952865E-01+
*       2.8878980852E+01               0
GRID*               4966               0-5.350971692E+002.9602426351E+00+
*       1.4470075334E+02               0
GRID*               4967               0-3.988095345E+00-1.778347497E+00+
*       2.7271140546E+01               0
GRID*               4968               0-4.308052958E+00-2.065051587E+00+
*       3.0586233710E+01               0
GRID*               4969               0-1.320851308E+003.7020241800E+00+
*       3.0586233694E+01               0
GRID*               4970               0-1.000893696E+003.9887282703E+00+
*       2.7271140529E+01               0
GRID*               4971               06.4613893895E-013.8006384344E+00+
*       3.0883085049E+01               0
GRID*               4972               0-4.575378618E+007.1103582325E-02+
*       2.7271140529E+01               0
GRID*               4973               0-4.895336230E+00-2.156005080E-01+
*       3.0586233694E+01               0
GRID*               4974               0-1.742262157E+00-4.971512395E+00+
*       2.1712160165E+02               0
GRID*               4975               0-4.159431930E+001.9668734240E+00+
*       2.7271139911E+01               0
GRID*               4976               0-4.479389542E+001.6801693336E+00+
*       3.0586233076E+01               0
GRID*               4977               0-2.850344775E+003.4014449976E+00+
*       2.7271140546E+01               0
GRID*               4978               0-3.170302387E+003.1147409073E+00+
*       3.0586233710E+01               0
GRID*               4979               04.8951908613E+003.2735502233E+00+
*       1.2898277472E+02               0
GRID*               4980               04.7904918758E+003.3004737408E+00+
*       1.3067614246E+02               0
GRID*               4981               0-2.145415194E+005.4074698900E+00+
*       1.2709929749E+02               0
GRID*               4982               0-3.208307834E+004.5211512979E+00+
*       1.2777468731E+02               0
GRID*               4983               0-2.145350527E+005.4075118872E+00+
*       1.2922292881E+02               0
GRID*               4984               0-3.659261927E+003.2644359273E+00+
*       1.2902681461E+02               0
GRID*               4985               01.5998391767E+005.5771974746E+00+
*       1.2709929733E+02               0
GRID*               4986               03.4611041663E+004.5833458595E+00+
*       1.2685914323E+02               0
GRID*               4987               0-5.450074562E+001.7064345788E+00+
*       2.3466004144E+02               0
GRID*               4988               0-5.174011396E+002.1341387788E+00+
*       2.3230881806E+02               0
GRID*               4989               0-4.905797652E+00-1.605549453E+00+
*       2.3230881899E+02               0
GRID*               4990               0-5.181860817E+00-2.033253653E+00+
*       2.3466004237E+02               0
GRID*               4991               0-4.228115800E+00-3.596064212E+00+
*       2.3300116018E+02               0
GRID*               4992               0-4.607026012E+00-2.080020561E+00+
*       2.2778943844E+02               0
GRID*               4993               0-4.905702822E+00-1.605686357E+00+
*       2.2998173376E+02               0
GRID*               4994               0-4.228020970E+00-3.596201116E+00+
*       2.3067407495E+02               0
GRID*               4995               0-2.624530923E+00-1.471645597E+00+
*       2.2970116642E+02               0
GRID*               4996               0-1.306081084E+00-5.200017053E-01+
*       2.3126266784E+02               0
GRID*               4997               0-5.248489093E-011.8655991381E-01+
*       2.3245341524E+02               0
GRID*               4998               0-6.812416220E-01-3.641267889E+00+
*       1.9340965428E+02               0
GRID*               4999               0-2.587645154E+00-3.275117509E+00+
*       1.9340964953E+02               0
GRID*               5000               01.4950875815E+00-3.657059731E+00+
*       1.9247327514E+02               0
GRID*               5001               03.3283041669E+00-3.021497081E+00+
*       1.9620046271E+02               0
GRID*               5002               0-1.422746884E+003.2925242103E+00+
*       1.8958699871E+02               0
GRID*               5003               01.9057117375E+002.7112935194E-01+
*       1.9060407389E+02               0
GRID*               5004               0-3.426890072E+002.7285699591E+00+
*       1.8987613024E+02               0
GRID*               5005               0-6.430434856E-01-1.880372805E-01+
*       1.8800692898E+02               0
GRID*               5006               0-9.843145109E-02-2.928248993E-01+
*       1.9089320542E+02               0
GRID*               5007               0-2.274760655E+00-2.770330574E-01+
*       1.9182958456E+02               0
GRID*               5008               02.7839317976E+00-2.916558784E+00+
*       1.8571172179E+02               0
GRID*               5009               04.8765455463E+007.5019480081E-01+
*       1.7394867286E+02               0
GRID*               5010               04.5360955126E+00-1.153204765E+00+
*       1.7394867258E+02               0
GRID*               5011               04.8084459514E+004.4120960971E-01+
*       1.7742466162E+02               0
GRID*               5012               04.4679959177E+00-1.462189956E+00+
*       1.7742466134E+02               0
GRID*               5013               0-7.027304408E-01-4.467312956E+00+
*       5.0158515962E+01               0
GRID*               5014               0-2.598464496E+00-4.051247423E+00+
*       4.6392926155E+01               0
GRID*               5015               0-1.593615624E+003.3642356096E+00+
*       1.8600085329E+02               0
GRID*               5016               0-3.426975283E+002.7285215034E+00+
*       1.8600085333E+02               0
GRID*               5017               0-2.404321012E+00-5.358085357E-01+
*       1.8500246917E+02               0
GRID*               5018               04.1062415596E-013.9281890832E+00+
*       1.8958699870E+02               0
GRID*               5019               09.5057213813E-01-3.552272890E+00+
*       1.8571172176E+02               0
GRID*               5020               09.5047554705E-01-3.552272112E+00+
*       1.8958699870E+02               0
GRID*               5021               02.7838465866E+00-2.916607240E+00+
*       1.8958699871E+02               0
GRID*               5022               0-1.053571050E+00-4.116227141E+00+
*       1.8600085329E+02               0
GRID*               5023               0-5.072862205E+00-8.685297636E-01+
*       2.0787589527E+02               0
GRID*               5024               03.9739010679E+002.0814788403E+00+
*       1.0025827802E+02               0
GRID*               5025               01.7968636879E+00-1.317700722E-01+
*       1.0113935638E+02               0
GRID*               5026               04.1417829937E+001.8267851025E+00+
*       1.0295297632E+02               0
GRID*               5027               03.3615336451E+003.6970532603E+00+
*       1.0116501604E+02               0
GRID*               5028               01.3097568696E+005.5066750643E+00+
*       2.3891792687E+02               0
GRID*               5029               0-5.215676463E+002.6854487231E+00+
*       1.0286658341E+02               0
GRID*               5030               0-4.941624721E+002.8225669469E+00+
*       1.0045633374E+02               0
GRID*               5031               0-2.653586585E+00-4.915607585E+00+
*       2.4017620011E+02               0
GRID*               5032               0-2.653471040E+00-4.915663716E+00+
*       2.3808754224E+02               0
GRID*               5033               0-4.121251489E+00-3.644182129E+00+
*       2.3808754275E+02               0
GRID*               5034               0-3.951941331E+003.7416546140E+00+
*       1.5353367422E+02               0
GRID*               5035               0-6.161520042E-016.6646314094E-01+
*       9.6040004848E+01               0
GRID*               5036               03.1638888473E-025.4231364195E+00+
*       9.8497460957E+01               0
GRID*               5037               02.4979198712E+005.0250143249E+00+
*       9.5567410301E+01               0
GRID*               5038               06.0227323152E-015.4415058358E+00+
*       9.5567411147E+01               0
GRID*               5039               0-3.633675089E+003.6825557300E+00+
*       1.1100574244E+02               0
GRID*               5040               0-4.744743895E-015.7032694966E+00+
*       1.0856671306E+02               0
GRID*               5041               0-2.324124234E+005.1166213430E+00+
*       1.0856671308E+02               0
GRID*               5042               03.5185405585E-015.4725282722E+00+
*       1.0633227090E+02               0
GRID*               5043               0-5.062209456E+001.6183881356E+00+
*       1.0881509203E+02               0
GRID*               5044               0-3.091794915E+00-2.589053368E-01+
*       1.0796658451E+02               0
GRID*               5045               0-4.688637005E+001.5733512201E+00+
*       1.0631833781E+02               0
GRID*               5046               0-3.633713996E+003.6824804859E+00+
*       1.0856671251E+02               0
GRID*               5047               05.0546160672E+002.1327288831E+00+
*       1.0801813609E+02               0
GRID*               5048               01.5909646413E+002.0699510116E+00+
*       1.0941800272E+02               0
GRID*               5049               02.8552749809E+003.9770941507E+00+
*       1.0856671308E+02               0
GRID*               5050               03.6816034262E+003.7463529263E+00+
*       1.0633227091E+02               0
GRID*               5051               01.4211341237E+005.2866839130E+00+
*       1.0856671251E+02               0
GRID*               5052               02.2474625690E+005.0559426886E+00+
*       1.0633227035E+02               0
GRID*               5053               03.6205504541E+003.4422797389E+00+
*       1.1045716545E+02               0
GRID*               5054               03.7109748647E+007.8352424211E-01+
*       1.1119223157E+02               0
GRID*               5055               03.5412195912E+004.0002182370E+00+
*       1.1277997128E+02               0
GRID*               5056               0-5.422964959E+00-2.117136530E+00+
*       2.4800926435E+02               0
GRID*               5057               01.5298714661E+005.4661486729E+00+
*       1.3326387160E+02               0
GRID*               5058               0-2.223508315E+002.3316987928E+00+
*       1.3000529207E+02               0
GRID*               5059               0-3.737419715E+001.8862283284E-01+
*       1.2980917787E+02               0
GRID*               5060               0-5.961510197E-015.8735306700E+00+
*       2.4100658494E+02               0
GRID*               5061               0-4.055733042E+00-2.004334027E+00+
*       1.9340965429E+02               0
GRID*               5062               0-4.428159062E+00-2.479292501E+00+
*       1.8987613024E+02               0
GRID*               5063               0-4.325247535E+001.7354405454E+00+
*       1.9340964953E+02               0
GRID*               5064               0-4.697673555E+001.2604820710E+00+
*       1.8987612548E+02               0
GRID*               5065               04.6480895820E+00-9.736291454E-01+
*       1.9998173086E+02               0
GRID*               5066               04.5991495274E+00-1.553497922E+00+
*       1.9620045733E+02               0
GRID*               5067               0-5.540784428E+002.2806120415E-01+
*       2.3230881897E+02               0
GRID*               5068               0-5.174074124E+002.1340096391E+00+
*       2.2998173228E+02               0
GRID*               5069               04.9889948105E+009.2970524845E-01+
*       1.9998173117E+02               0
GRID*               5070               04.9400547558E+003.4983647211E-01+
*       1.9620045764E+02               0
GRID*               5071               0-7.094872820E-015.0160321306E+00+
*       2.0051919237E+02               0
GRID*               5072               02.2053712424E+004.7974003195E+00+
*       1.9758963122E+02               0
GRID*               5073               04.3787698881E+002.7661819238E+00+
*       1.9998173625E+02               0
GRID*               5074               05.0881292780E+00-1.487677762E+00+
*       2.1927178460E+02               0
GRID*               5075               04.5542305412E+00-1.417189867E+00+
*       2.1653504011E+02               0
GRID*               5076               04.8194039713E+002.2520509866E+00+
*       2.1927178759E+02               0
GRID*               5077               04.2855052345E+002.3225388812E+00+
*       2.1653504309E+02               0
GRID*               5078               02.8175920459E+003.5937029303E+00+
*       2.1653504011E+02               0
GRID*               5079               0-4.706511947E+001.0378272137E+00+
*       2.0787589038E+02               0
GRID*               5080               05.4293307642E+004.1555070714E-01+
*       2.1927178426E+02               0
GRID*               5081               04.8954320274E+004.8603860174E-01+
*       2.1653503977E+02               0
GRID*               5082               0-7.982286886E-01-3.830375091E+00+
*       4.2660612465E+01               0
GRID*               5083               0-9.702641033E-02-1.883212568E-01+
*       4.0865042636E+01               0
GRID*               5084               0-7.981351932E-01-3.830373756E+00+
*       3.8814491613E+01               0
GRID*               5085               0-1.320794730E+003.7020205255E+00+
*       3.4479745640E+01               0
GRID*               5086               01.2018392006E+004.1241307043E+00+
*       2.6459034572E+01               0
GRID*               5087               03.0976090422E+003.7081840161E+00+
*       2.6459033954E+01               0
GRID*               5088               02.5419087806E+003.3846917462E+00+
*       3.0883084432E+01               0
GRID*               5089               01.6395220922E-01-5.338040841E+00+
*       2.1712160463E+02               0
GRID*               5090               02.8935913737E+00-3.262795923E+00+
*       3.8300713688E+01               0
GRID*               5091               0-1.141068307E+003.6617298801E+00+
*       4.2660612465E+01               0
GRID*               5092               07.0120227827E-013.6420538346E+00+
*       4.2146834536E+01               0
GRID*               5093               01.0284903547E+004.7306823742E+00+
*       4.5671334322E+01               0
GRID*               5094               0-1.141161803E+003.6617285450E+00+
*       3.8814491613E+01               0
GRID*               5095               0-3.164464319E-01-2.140468866E+00+
*       1.5611156028E+02               0
GRID*               5096               02.1568319826E+00-1.873193441E+00+
*       1.5526354844E+02               0
GRID*               5097               05.3367469289E-01-5.566541187E+00+
*       2.2510983437E+02               0
GRID*               5098               01.0299037735E-01-5.479698626E+00+
*       2.2270861514E+02               0
GRID*               5099               01.9365397730E+00-4.844541868E+00+
*       2.2270861516E+02               0
GRID*               5100               0-5.241622928E+00-2.445307776E+00+
*       1.5635253562E+02               0
GRID*               5101               0-4.463716746E+00-3.551287604E+00+
*       1.5717448478E+02               0
GRID*               5102               0-2.968790443E+00-1.654388080E+00+
*       1.5635203744E+02               0
GRID*               5103               0-2.190884261E+00-2.760367908E+00+
*       1.5717398661E+02               0
GRID*               5104               0-2.473444817E+00-1.642180430E-01+
*       8.0525162964E+01               0
GRID*               5105               0-1.700730068E+00-4.728573532E+00+
*       8.0895881474E+01               0
GRID*               5106               05.3720763332E+001.4267296328E-01+
*       8.6230016261E+01               0
GRID*               5107               05.3324937287E+007.0281625013E-01+
*       8.2837022990E+01               0
GRID*               5108               04.8035223129E+001.9942454232E+00+
*       8.6230017740E+01               0
GRID*               5109               04.7639397084E+002.5543887101E+00+
*       8.2837024468E+01               0
GRID*               5110               04.5919550163E+002.2849169779E+00+
*       7.6888686374E+01               0
GRID*               5111               03.0374894536E+007.9863779419E-01+
*       7.7549083912E+01               0
GRID*               5112               04.7638758380E+002.5544863507E+00+
*       7.9751163197E+01               0
GRID*               5113               04.3644661590E+003.7496969607E+00+
*       7.7973283904E+01               0
GRID*               5114               05.3324803546E+007.0291785456E-01+
*       7.9751161540E+01               0
GRID*               5115               05.1605595329E+004.3334848183E-01+
*       7.6888684717E+01               0
GRID*               5116               04.8926932749E+00-1.225216522E+00+
*       7.7872294515E+01               0
GRID*               5117               01.1467549849E+00-3.880161570E+00+
*       5.0158515957E+01               0
GRID*               5118               0-3.158371459E+003.9689975034E+00+
*       5.0225515801E+01               0
GRID*               5119               0-1.667269544E+004.6805929407E+00+
*       5.4047243010E+01               0
GRID*               5120               0-3.185066044E+002.7880990348E+00+
*       5.3366047938E+01               0
GRID*               5121               0-1.743625727E+00-5.448817448E+00+
*       2.3912513660E+02               0
GRID*               5122               0-8.918079372E-01-5.257673774E+00+
*       2.3682743192E+02               0
GRID*               5123               02.4909504161E+005.0567437406E+00+
*       2.2540995441E+02               0
GRID*               5124               05.8479076707E-015.4233586719E+00+
*       2.2540995657E+02               0
GRID*               5125               01.2466213077E+005.1551346608E+00+
*       2.2209462501E+02               0
GRID*               5126               0-6.595383414E-015.5217495921E+00+
*       2.2209462716E+02               0
GRID*               5127               07.5948502867E-02-5.310741525E+00+
*       5.7348581476E+01               0
GRID*               5128               0-3.107322685E-01-4.997191844E+00+
*       6.0213864823E+01               0
GRID*               5129               04.9730417941E+001.7249603682E-01+
*       6.6959737559E+01               0
GRID*               5130               05.0102312178E+001.9956913701E-01+
*       6.3413613294E+01               0
GRID*               5131               02.9700031249E+003.3333077126E+00+
*       6.6959737750E+01               0
GRID*               5132               04.5751392783E+00-1.721244132E+00+
*       6.6959737750E+01               0
GRID*               5133               04.6123287020E+00-1.694171032E+00+
*       6.3413613485E+01               0
GRID*               5134               0-6.032893013E-02-5.241655084E+00+
*       6.6733769713E+01               0
GRID*               5135               0-3.108559843E-01-4.997198051E+00+
*       6.3742442664E+01               0
GRID*               5136               05.0880594305E+00-1.487821685E+00+
*       2.2199044366E+02               0
GRID*               5137               03.8168016021E+00-2.955704583E+00+
*       2.2199044582E+02               0
GRID*               5138               01.9367033998E+00-4.844428236E+00+
*       2.1998995692E+02               0
GRID*               5139               0-3.270938537E+00-3.841989493E+00+
*       2.1998995692E+02               0
GRID*               5140               0-1.803025349E+00-5.113153543E+00+
*       2.1998995394E+02               0
GRID*               5141               0-3.210175345E+00-3.700348346E+00+
*       2.1712160463E+02               0
GRID*               5142               0-2.710332032E-01-3.337134645E+00+
*       2.1879389093E+02               0
GRID*               5143               05.1054022628E+001.2657885476E-01+
*       2.2661427117E+02               0
GRID*               5144               03.5184050899E+00-5.767002988E-01+
*       2.2734568693E+02               0
GRID*               5145               0-1.372484956E+00-5.199926255E+00+
*       2.2510983222E+02               0
GRID*               5146               0-1.803169272E+00-5.113083695E+00+
*       2.2270861299E+02               0
GRID*               5147               0-2.576335881E+00-4.816837038E+00+
*       2.2438736634E+02               0
GRID*               5148               01.0318901754E-01-5.479681989E+00+
*       2.1998995692E+02               0
GRID*               5149               0-2.956255621E+00-3.902586605E-01+
*       2.1827536962E+02               0
GRID*               5150               03.9075897386E-01-1.610042051E-01+
*       2.1771822530E+02               0
GRID*               5151               0-1.737785969E+00-1.677551815E+00+
*       2.1863286592E+02               0
GRID*               5152               0-1.428739664E+00-1.908200343E+00+
*       2.1556804234E+02               0
GRID*               5153               01.3096010792E+005.3408288039E+00+
*       1.4780929195E+02               0
GRID*               5154               01.4357791203E+001.9011043005E+00+
*       1.4706805507E+02               0
GRID*               5155               05.1440157281E+008.8276029879E-01+
*       1.5002212496E+02               0
GRID*               5156               05.3703074661E+00-8.787070537E-01+
*       1.5165148998E+02               0
GRID*               5157               02.6427908364E+002.2812145121E+00+
*       1.5146745701E+02               0
GRID*               5158               01.8271392701E+009.1351273301E-01+
*       1.5195829181E+02               0
GRID*               5159               0-1.712011851E+00-5.486399033E+00+
*       1.4732352488E+02               0
GRID*               5160               04.9546328621E+001.7337480130E+00+
*       1.5144533205E+02               0
GRID*               5161               04.3865858602E+003.5853920383E+00+
*       1.5144533205E+02               0
GRID*               5162               02.9526782257E+004.8952895406E+00+
*       1.5144533205E+02               0
GRID*               5163               08.1038927578E-013.5777112057E+00+
*       1.5122890398E+02               0
GRID*               5164               0-4.420589674E+002.9660295246E+00+
*       1.6206413743E+02               0
GRID*               5165               0-4.863639106E+002.5790990038E+00+
*       1.6427859103E+02               0
GRID*               5166               01.9704064819E+001.8636661514E+00+
*       1.6160080276E+02               0
GRID*               5167               0-5.023015628E+001.7077945380E+00+
*       1.3745599393E+02               0
GRID*               5168               0-5.023047505E+001.7077329612E+00+
*       1.3542276568E+02               0
GRID*               5169               0-4.969966471E+003.2808353212E+00+
*       1.3652353366E+02               0
GRID*               5170               01.5941133417E+003.8437876140E+00+
*       1.3453561534E+02               0
GRID*               5171               0-1.159661183E-015.8899990163E+00+
*       1.3536636030E+02               0
GRID*               5172               0-1.965695897E+005.3035945606E+00+
*       1.3536636032E+02               0
GRID*               5173               0-3.656542310E-015.8829742393E+00+
*       1.3326387163E+02               0
GRID*               5174               05.0810154679E+001.2459367456E-01+
*       1.6494224160E+02               0
GRID*               5175               02.3974079486E+00-4.782909351E+00+
*       1.0366668345E+02               0
GRID*               5176               01.9901017065E+00-5.301939205E+00+
*       1.0154909639E+02               0
GRID*               5177               03.7069572811E+00-3.348743058E+00+
*       1.0366668275E+02               0
GRID*               5178               04.3119391468E+00-1.918475799E+00+
*       1.0295297562E+02               0
GRID*               5179               03.2996510389E+00-3.867772912E+00+
*       1.0154909568E+02               0
GRID*               5180               0-6.881634912E-01-9.106630789E-01+
*       9.3735135178E+01               0
GRID*               5181               07.8457558001E-01-2.081067185E+00+
*       9.9735476440E+01               0
GRID*               5182               02.8345930044E+00-3.097892605E+00+
*       9.7590722945E+01               0
GRID*               5183               0-5.816859915E+00-1.994911041E-01+
*       2.3684933388E+02               0
GRID*               5184               0-5.816847594E+00-1.996429959E-01+
*       2.3466004235E+02               0
GRID*               5185               05.1053831017E+001.2672445058E-01+
*       2.2411059050E+02               0
GRID*               5186               04.5750899631E+00-1.721339097E+00+
*       7.0345759389E+01               0
GRID*               5187               01.8725745083E+00-4.943758658E+00+
*       7.3078494492E+01               0
GRID*               5188               04.5918890411E+002.2850180599E+00+
*       7.3652168573E+01               0
GRID*               5189               04.4044000043E+002.0239475625E+00+
*       7.0345760974E+01               0
GRID*               5190               01.3058250724E+004.8284744609E+00+
*       7.0362676351E+01               0
GRID*               5191               0-2.311310389E+001.6911454103E+00+
*       2.4934736565E+02               0
GRID*               5192               0-2.028605093E+002.5094889679E+00+
*       2.5077335638E+02               0
GRID*               5193               01.3358583332E+00-5.140105459E+00+
*       7.4635778372E+01               0
GRID*               5194               03.2820788204E+004.7245627998E+00+
*       2.4312327097E+02               0
GRID*               5195               07.6506502178E-014.9683982636E+00+
*       2.4487477191E+02               0
GRID*               5196               0-6.184743180E-01-1.176369064E+00+
*       9.8429665442E+01               0
GRID*               5197               0-3.450745009E+003.7643557456E+00+
*       9.5186069723E+01               0
GRID*               5198               0-3.450834385E+003.7642971935E+00+
*       9.2387610038E+01               0
GRID*               5199               0-1.247433698E+004.8547015544E+00+
*       9.2768951474E+01               0
GRID*               5200               0-2.264203612E+004.8915999549E+00+
*       8.9976601117E+01               0
GRID*               5201               0-5.972242626E-017.2577592169E-01+
*       9.0437756926E+01               0
GRID*               5202               0-3.092320050E+00-1.473258822E+00+
*       2.3714177616E+02               0
GRID*               5203               02.2262566493E+00-6.644576238E-02+
*       5.1087400841E+01               0
GRID*               5204               01.6124916919E-01-1.712328077E+00+
*       4.8388229665E+01               0
GRID*               5205               0-4.883630625E+006.3867260899E-01+
*       4.6459927979E+01               0
GRID*               5206               0-4.883634610E+006.3878452395E-01+
*       5.0225515806E+01               0
GRID*               5207               0-4.910329195E+00-5.421139446E-01+
*       5.3366047943E+01               0
GRID*               5208               0-4.620094806E+00-8.925643793E-01+
*       5.0158515962E+01               0
GRID*               5209               0-1.141068818E+005.3353636281E+00+
*       2.4285171540E+02               0
GRID*               5210               03.5102047747E-015.3942249711E-01+
*       2.1012020157E+01               0
GRID*               5211               04.7035172004E+00-1.346124059E+00+
*       2.6459033954E+01               0
GRID*               5212               04.1478169387E+00-1.669616329E+00+
*       3.0883084432E+01               0
GRID*               5213               05.1010745908E+005.4772364763E-01+
*       2.6459034140E+01               0
GRID*               5214               0-5.477542652E+00-4.030007412E-01+
*       1.2796268414E+01               0
GRID*               5215               0-5.448679368E+00-6.100244820E-03+
*       1.5790703232E+01               0
GRID*               5216               05.2246786371E+00-1.612529474E+00+
*       1.0801813553E+02               0
GRID*               5217               04.3118985801E+00-1.918554251E+00+
*       1.0550045000E+02               0
GRID*               5218               03.7069167144E+00-3.348821510E+00+
*       1.0621415713E+02               0
GRID*               5219               0-4.518574435E+00-2.171907137E+00+
*       1.0631833837E+02               0
GRID*               5220               0-3.084433578E+00-3.481496899E+00+
*       1.0631833781E+02               0
GRID*               5221               0-4.558672218E+00-3.408805613E+00+
*       1.0532918110E+02               0
GRID*               5222               0-1.342197773E+00-1.947742045E+00+
*       1.0775983958E+02               0
GRID*               5223               0-2.093017266E+005.0148185885E+00+
*       1.4329294693E+02               0
GRID*               5224               0-4.041154866E+004.3941372344E+00+
*       1.4271672521E+02               0
GRID*               5225               03.7630090313E+00-3.440591372E+00+
*       7.3970329518E+00               0
GRID*               5226               01.9818927660E+00-2.288091131E+00+
*       6.4746932899E+00               0
GRID*               5227               03.4343963808E+00-3.679260987E+00+
*       9.6673589248E+00               0
GRID*               5228               01.6532801155E+00-2.526760746E+00+
*       8.7450192629E+00               0
GRID*               5229               0-2.611418099E+00-5.359218600E+00+
*       -9.521604934E-01               0
GRID*               5230               0-1.553307311E+00-5.395575819E+00+
*       1.0442217081E+00               0
GRID*               5231               0-1.483622827E+00-5.336393490E+00+
*       7.6577260698E+00               0
GRID*               5232               0-3.661263782E+00-3.701950656E+00+
*       8.1438532282E+00               0
GRID*               5233               0-2.225779990E+00-4.994707111E+00+
*       9.9047848984E+00               0
GRID*               5234               04.7433853845E+00-2.244492289E+00+
*       9.6673592604E+00               0
GRID*               5235               03.1547759444E+00-8.026723718E-01+
*       8.4843264806E+00               0
GRID*               5236               0-3.454245672E+00-3.771183956E+00+
*       3.8313409951E+00               0
GRID*               5237               0-3.661176963E+00-3.701995535E+00+
*       5.8817427422E+00               0
GRID*               5238               0-1.483536008E+00-5.336438369E+00+
*       5.3956155837E+00               0
GRID*               5239               02.2198010040E+001.6119313475E+00+
*       6.2142518738E+00               0
GRID*               5240               0-3.977353695E+004.0049638349E+00+
*       7.0844402937E+00               0
GRID*               5241               0-5.095967837E+00-2.393059212E+00+
*       5.8817426561E+00               0
GRID*               5242               0-4.889036545E+00-2.462247633E+00+
*       3.8313409089E+00               0
GRID*               5243               0-1.543208027E+005.0525227196E+00+
*       7.3972843181E+00               0
GRID*               5244               0-4.428644997E+00-2.413055192E+00+
*       2.1676410834E+02               0
GRID*               5245               0-5.372945056E+00-3.488922811E-01+
*       2.1982893191E+02               0
GRID*               5246               0-5.006416610E+001.5573220851E+00+
*       2.1982892893E+02               0
GRID*               5247               04.4454806076E+002.3796942602E+00+
*       2.0723005650E+02               0
GRID*               5248               04.4456076189E+002.3795102703E+00+
*       2.1046578944E+02               0
GRID*               5249               04.4982540135E+003.8918207663E+00+
*       2.1118989291E+02               0
GRID*               5250               04.4981270021E+003.8920047562E+00+
*       2.0795415996E+02               0
GRID*               5251               0-3.139175938E+00-3.351361852E+00+
*       2.2778943696E+02               0
GRID*               5252               0-2.576472762E+00-4.816770570E+00+
*       2.2689104696E+02               0
GRID*               5253               0-2.760170896E+00-4.867542407E+00+
*       2.3067407347E+02               0
GRID*               5254               0-1.372621837E+00-5.199859788E+00+
*       2.2761351284E+02               0
GRID*               5255               0-8.579768222E-01-3.320143533E+00+
*       2.2952524230E+02               0
GRID*               5256               0-8.540563650E-01-5.234239000E+00+
*       2.3067407493E+02               0
GRID*               5257               0-2.761445080E+00-2.398014572E+00+
*       2.3941393408E+02               0
GRID*               5258               0-3.822140944E+00-7.869607821E-01+
*       2.3817572523E+02               0
GRID*               5259               01.2819908756E+005.4607222059E+00+
*       2.3706580598E+02               0
GRID*               5260               0-4.892197309E+00-2.126793109E+00+
*       1.1125412239E+02               0
GRID*               5261               0-3.379047243E+003.0074920773E+00+
*       1.0631833837E+02               0
GRID*               5262               0-5.478795040E+00-2.772203776E-01+
*       1.0881509257E+02               0
GRID*               5263               0-5.353782209E+001.8307862151E+00+
*       1.1517988000E+02               0
GRID*               5264               0-4.728980208E+002.7926235994E+00+
*       2.4058012434E+02               0
GRID*               5265               05.1605455059E+004.3345504674E-01+
*       7.3652166750E+01               0
GRID*               5266               0-4.114352948E+00-3.459414987E+00+
*       1.1404644048E+02               0
GRID*               5267               03.3464392320E+00-3.521093266E+00+
*       1.0860834710E+02               0
GRID*               5268               05.2246397307E+00-1.612604718E+00+
*       1.1045716545E+02               0
GRID*               5269               04.1418360102E+001.8267041061E+00+
*       1.0550045057E+02               0
GRID*               5270               02.2473841166E+005.0559832553E+00+
*       1.0378479597E+02               0
GRID*               5271               03.5175732271E-015.4725228312E+00+
*       1.0378479666E+02               0
GRID*               5272               07.2426368106E-013.4034531680E+00+
*       1.0287791475E+02               0
GRID*               5273               03.1740558153E-025.4231421687E+00+
*       1.0116501602E+02               0
GRID*               5274               04.7409503703E+00-1.778851589E+00+
*       1.6494224149E+02               0
GRID*               5275               03.8515174210E+00-3.339770303E+00+
*       1.6270095241E+02               0
GRID*               5276               04.4894849773E+00-3.035483622E+00+
*       1.6548442091E+02               0
GRID*               5277               03.8516259374E+00-3.339546405E+00+
*       1.6042121186E+02               0
GRID*               5278               0-5.062107925E+00-2.120943034E+00+
*       1.6052869005E+02               0
GRID*               5279               0-4.463851866E+00-3.551089338E+00+
*       1.5921455973E+02               0
GRID*               5280               0-5.512732215E+001.2941489326E+00+
*       1.5635253562E+02               0
GRID*               5281               0-5.878025267E+00-6.121858284E-01+
*       1.5635253562E+02               0
GRID*               5282               0-4.930125298E+007.7812027017E-01+
*       1.5508373948E+02               0
GRID*               5283               0-4.564832246E+002.6844550312E+00+
*       1.5508373948E+02               0
GRID*               5284               0-5.512636018E+001.2943474444E+00+
*       1.5839261091E+02               0
GRID*               5285               0-3.150303597E+004.4345669102E+00+
*       1.5978439654E+02               0
GRID*               5286               0-6.877418361E-015.7517447417E+00+
*       1.5228357193E+02               0
GRID*               5287               0-4.325154959E+001.7356314968E+00+
*       1.9713683647E+02               0
GRID*               5288               0-2.587836106E+00-3.275024933E+00+
*       1.9713683647E+02               0
GRID*               5289               0-1.618287183E+00-4.654889751E+00+
*       2.0016399048E+02               0
GRID*               5290               0-5.063880984E+00-5.797545614E-01+
*       2.1379710198E+02               0
GRID*               5291               0-5.072880236E+00-8.683069430E-01+
*       2.1111162821E+02               0
GRID*               5292               0-3.415468149E+00-2.544841528E-01+
*       1.3888163857E+02               0
GRID*               5293               0-5.439873071E+00-1.877927360E-01+
*       1.3542276571E+02               0
GRID*               5294               0-4.853468615E+00-2.037522515E+00+
*       1.3542276573E+02               0
GRID*               5295               0-5.843879043E+00-8.591091353E-02+
*       1.3271893288E+02               0
GRID*               5296               0-5.257474588E+00-1.935640692E+00+
*       1.3271893291E+02               0
GRID*               5297               0-4.875397314E+001.6596754350E+00+
*       2.2778943696E+02               0
GRID*               5298               0-3.604205953E+003.1274214513E+00+
*       2.2528575850E+02               0
GRID*               5299               0-1.248608698E+004.7883059711E+00+
*       2.2791363652E+02               0
GRID*               5300               0-3.764415413E+003.4185660131E+00+
*       2.1937596595E+02               0
GRID*               5301               03.0276662371E+003.2344770291E+00+
*       2.2411059085E+02               0
GRID*               5302               03.9588333137E+003.7854859122E+00+
*       2.2540995658E+02               0
GRID*               5303               0-5.032806580E+001.8897349977E+00+
*       1.9174332844E+01               0
GRID*               5304               0-4.159503982E+001.9667339658E+00+
*       2.3459388374E+01               0
GRID*               5305               03.9353008854E+00-1.719710353E+00+
*       -3.908346574E-01               0
GRID*               5306               01.9018325981E+00-1.085115194E+00+
*       -3.517697139E+00               0
GRID*               5307               03.0704228187E+002.5299150573E-01+
*       -2.274377625E+00               0
GRID*               5308               03.2087727631E+00-1.682407991E+00+
*       -3.443279558E+00               0
GRID*               5309               04.1172983811E+00-3.560120530E+00+
*       5.5244490036E-01               0
GRID*               5310               05.4692940868E+00-1.118545564E-01+
*       5.1349228375E+00               0
GRID*               5311               0-6.596437915E-012.4014728385E+00+
*       2.8824208482E+02               0
GRID*               5312               05.9087344074E-012.4627541025E+00+
*       2.9087110696E+02               0
GRID*               5313               01.6613704354E-01-1.302491121E-01+
*       2.8954250634E+02               0
GRID*               5314               05.9091733027E-012.4627560887E+00+
*       2.8859134672E+02               0
GRID*               5315               0-4.250943533E-01-2.593007771E+00+
*       2.8824208557E+02               0
GRID*               5316               0-4.250630008E-01-2.593007860E+00+
*       2.9052184539E+02               0
GRID*               5317               08.2549812094E-01-2.531724610E+00+
*       2.9087110729E+02               0
GRID*               5318               08.2546676853E-01-2.531724521E+00+
*       2.8859134746E+02               0
GRID*               5319               0-2.390518632E+001.5875921767E+00+
*       2.8824208557E+02               0
GRID*               5320               0-6.394468437E-012.5208363367E+00+
*       2.8604022732E+02               0
GRID*               5321               0-1.064227130E+00-7.216886409E-02+
*       2.8699138694E+02               0
GRID*               5322               0-2.370321684E+001.7069556749E+00+
*       2.8604022807E+02               0
GRID*               5323               0-7.744329694E-01-2.564271745E+00+
*       2.9254532416E+02               0
GRID*               5324               0-2.567344382E-014.1595646971E-01+
*       2.9391352439E+02               0
GRID*               5325               07.5199660772E-01-2.014255143E+00+
*       2.9321864658E+02               0
GRID*               5326               0-1.832329250E-01-1.015129969E-01+
*       2.9156598510E+02               0
GRID*               5327               01.3431966521E+004.4850360468E-01+
*       2.9223930752E+02               0
GRID*               5328               0-1.009099014E+002.4302050761E+00+
*       2.9462983717E+02               0
GRID*               5329               05.1733056358E-012.9802216776E+00+
*       2.9530315960E+02               0
GRID*               5330               04.8884058371E+001.2211032492E-01+
*       1.8565891771E+01               0
GRID*               5331               04.4910085352E+00-1.771614631E+00+
*       1.5182262622E+01               0
GRID*               5332               07.5203091434E-01-2.014254481E+00+
*       2.9530315968E+02               0
GRID*               5333               0-7.743986628E-01-2.564271082E+00+
*       2.9462983725E+02               0
GRID*               5334               0-8.983538667E-01-2.081697091E+00+
*       2.9666144726E+02               0
GRID*               5335               0-3.806896422E-018.9853046171E-01+
*       2.9594513439E+02               0
GRID*               5336               0-1.907119219E+003.4851386016E-01+
*       2.9527181197E+02               0
GRID*               5337               0-2.739934768E+001.6162812953E+00+
*       2.9462983726E+02               0
GRID*               5338               0-1.133054217E+002.9127790681E+00+
*       2.9666144718E+02               0
GRID*               5339               0-2.863889972E+002.0988552873E+00+
*       2.9666144726E+02               0
GRID*               5340               0-2.278964654E+00-2.504423699E+00+
*       2.9800973622E+02               0
GRID*               5341               05.6618248759E+00-6.525267771E-01+
*       2.4332514080E+02               0
GRID*               5342               05.6618403587E+00-6.526444233E-01+
*       2.4534819756E+02               0
GRID*               5343               04.4326905169E+00-8.020077767E-01+
*       2.4733893330E+02               0
GRID*               5344               01.6242180795E-01-5.815661995E+00+
*       2.3912513709E+02               0
GRID*               5345               01.0142395976E+00-5.624518322E+00+
*       2.3682743241E+02               0
GRID*               5346               0-4.323177809E+00-2.391599370E+00+
*       5.3366047938E+01               0
GRID*               5347               0-4.032943420E+00-2.742049805E+00+
*       5.0158515957E+01               0
GRID*               5348               07.6069159985E-02-5.310736085E+00+
*       5.3691105751E+01               0
GRID*               5349               0-5.181947353E+00-2.033128339E+00+
*       2.3684933390E+02               0
GRID*               5350               0-4.851072383E+00-2.957884089E+00+
*       2.3912149182E+02               0
GRID*               5351               0-4.494213025E+001.3537172058E+00+
*       5.3366045895E+01               0
GRID*               5352               0-4.467518439E+002.5346156744E+00+
*       5.0225513758E+01               0
GRID*               5353               03.0560808247E+00-4.149976677E+00+
*       4.9703293716E+01               0
GRID*               5354               0-2.990537010E+003.0745228999E+00+
*       4.2660612462E+01               0
GRID*               5355               0-1.308997948E+004.5561449042E+00+
*       4.6459927979E+01               0
GRID*               5356               0-3.158466650E+003.9689379240E+00+
*       4.6459927976E+01               0
GRID*               5357               02.9244334201E+004.3145701888E+00+
*       4.9436920102E+01               0
GRID*               5358               04.3498742297E+002.9454191498E+00+
*       5.2857687133E+01               0
GRID*               5359               04.3588152491E+003.0054232086E+00+
*       4.9436922144E+01               0
GRID*               5360               0-2.457693895E+005.1926541922E+00+
*       2.3706580649E+02               0
GRID*               5361               0-3.729175481E+003.7248737433E+00+
*       2.3706580598E+02               0
GRID*               5362               0-2.457819208E+005.1925676563E+00+
*       2.3487651495E+02               0
GRID*               5363               02.8478768329E+00-4.989605760E+00+
*       2.3682743243E+02               0
GRID*               5364               02.8480021462E+00-4.989519224E+00+
*       2.3463814090E+02               0
GRID*               5365               07.4806843789E-01-5.444592827E+00+
*       1.6042121154E+02               0
GRID*               5366               0-2.739086675E-01-5.911668346E+00+
*       1.5806397250E+02               0
GRID*               5367               01.5594525057E+00-5.275248088E+00+
*       1.5602389754E+02               0
GRID*               5368               02.6190024674E+00-3.930571798E+00+
*       1.5611205846E+02               0
GRID*               5369               03.7469276633E+00-4.150086264E+00+
*       1.5415148998E+02               0
GRID*               5370               01.9490523898E+00-5.167451741E+00+
*       1.5363490242E+02               0
GRID*               5371               0-4.571034474E+00-1.585056505E+00+
*       1.5499950182E+02               0
GRID*               5372               0-3.388850728E+00-5.727434305E-01+
*       1.5191380933E+02               0
GRID*               5373               0-5.587526906E+003.6649517726E-01+
*       1.5353367422E+02               0
GRID*               5374               0-2.731449120E+00-1.611183375E-01+
*       1.5346387459E+02               0
GRID*               5375               0-3.037382906E+001.6874697007E+00+
*       1.5361741370E+02               0
GRID*               5376               03.6616695144E+00-4.206235829E+00+
*       1.5165148998E+02               0
GRID*               5377               01.8637942409E+00-5.223601306E+00+
*       1.5113490242E+02               0
GRID*               5378               03.9886746280E+003.5097671024E+00+
*       8.1172883627E+01               0
GRID*               5379               02.5544005986E+004.8191303569E+00+
*       8.1172882232E+01               0
GRID*               5380               01.9486975024E-01-5.144915317E+00+
*       8.3981744135E+01               0
GRID*               5381               04.6872053931E+005.9952502886E-01+
*       9.1765830417E+01               0
GRID*               5382               05.3720890695E+001.4257620458E-01+
*       8.9168706566E+01               0
GRID*               5383               04.8035836275E+001.9941517961E+00+
*       8.9168707863E+01               0
GRID*               5384               0-5.467874858E+00-4.062017204E-01+
*       1.3950179433E+02               0
GRID*               5385               0-4.881505779E+00-2.255942945E+00+
*       1.3950179435E+02               0
GRID*               5386               0-5.439876690E+00-1.877209541E-01+
*       1.3745599393E+02               0
GRID*               5387               0-4.853507611E+00-2.037462178E+00+
*       1.3745599395E+02               0
GRID*               5388               0-5.843875214E+00-8.598515304E-02+
*       1.3064580924E+02               0
GRID*               5389               0-5.257434186E+00-1.935703046E+00+
*       1.3064580926E+02               0
GRID*               5390               0-5.385813003E+00-6.512257867E-02+
*       1.2902681459E+02               0
GRID*               5391               0-4.799371976E+00-1.914840471E+00+
*       1.2902681461E+02               0
GRID*               5392               0-5.427086152E+001.8095516441E+00+
*       1.3064580916E+02               0
GRID*               5393               0-4.969023941E+001.8304142185E+00+
*       1.2902681451E+02               0
GRID*               5394               0-1.709938442E+00-5.493176570E+00+
*       1.3549973089E+02               0
GRID*               5395               0-1.854142862E+00-5.395442004E+00+
*       1.3302418048E+02               0
GRID*               5396               0-2.316503501E+00-4.290057472E+00+
*       1.3426920645E+02               0
GRID*               5397               0-5.749726340E-01-3.124609013E+00+
*       1.3575924414E+02               0
GRID*               5398               0-3.365350267E+00-3.224602486E+00+
*       1.2902681451E+02               0
GRID*               5399               0-3.823412478E+00-3.245465060E+00+
*       1.3064580916E+02               0
GRID*               5400               0-1.854079722E+00-5.395474680E+00+
*       1.3095105678E+02               0
GRID*               5401               0-1.768086959E+00-1.961386787E+00+
*       1.3011442549E+02               0
GRID*               5402               0-4.518069849E+003.0871295891E+00+
*       1.2777468721E+02               0
GRID*               5403               01.7030968826E+001.5933998423E-01+
*       2.9880605486E+02               0
GRID*               5404               05.1269456244E-01-1.150666513E+00+
*       2.9880605486E+02               0
GRID*               5405               0-1.612211715E+00-2.395884900E-01+
*       2.9865171099E+02               0
GRID*               5406               0-4.218093952E-011.0704180071E+00+
*       2.9865171099E+02               0
GRID*               5407               09.3831854551E-02-7.999017072E-02+
*       2.9745776585E+02               0
GRID*               5408               0-5.633613783E+002.3408311236E+00+
*       -2.500000000E+00               0
GRID*               5409               0-4.785337358E+003.3491511129E+00+
*       -9.398166170E-01               0
GRID*               5410               0-3.758174648E+002.2426664514E+00+
*       -3.439816617E+00               0
GRID*               5411               0-4.811159408E+003.5623661100E+00+
*       -3.439816617E+00               0
GRID*               5412               0-3.391822001E+004.9817035169E+00+
*       -3.439816617E+00               0
GRID*               5413               0-1.116582795E+005.9004278240E+00+
*       -3.636891545E+00               0
GRID*               5414               04.5215442689E-013.9165428146E+00+
*       -3.636891545E+00               0
GRID*               5415               08.2029009477E-016.4192175275E+00+
*       -3.636891545E+00               0
GRID*               5416               0-1.823084779E+002.9978185075E+00+
*       -3.439816617E+00               0
GRID*               5417               0-6.346590168E-014.1697107479E+00+
*       -2.076708162E+00               0
GRID*               5418               06.4816086815E-016.2902496573E+00+
*       -1.136891545E+00               0
GRID*               5419               0-5.340895102E+001.8381227339E+00+
*       -9.670094486E-01               0
GRID*               5420               0-4.820071543E+003.2041410936E+00+
*       6.9524557136E-01               0
GRID*               5421               0-2.378642523E+001.4867901285E+00+
*       -3.467009449E+00               0
GRID*               5422               01.6441974784E-016.5155516364E-01+
*       -3.517697139E+00               0
GRID*               5423               04.9400262311E+003.5005321813E-01+
*       1.9247327079E+02               0
GRID*               5424               04.5992421039E+00-1.553306970E+00+
*       1.9247327039E+02               0
GRID*               5425               02.7973612141E+003.8572435542E+00+
*       1.7052889156E+02               0
GRID*               5426               09.0555427050E-014.5927503445E+00+
*       1.7041983944E+02               0
GRID*               5427               0-1.545818785E+004.7601661897E+00+
*       1.6523661051E+02               0
GRID*               5428               0-5.229178644E+006.7287218670E-01+
*       1.6427858980E+02               0
GRID*               5429               0-5.332877379E+001.6187378173E+00+
*       1.6280843093E+02               0
GRID*               5430               0-3.823475617E+00-3.245432385E+00+
*       1.3271893286E+02               0
GRID*               5431               01.8911749677E+00-5.225822714E+00+
*       1.3095105688E+02               0
GRID*               5432               0-4.799329979E+00-1.914905139E+00+
*       1.2690318328E+02               0
GRID*               5433               0-3.232046660E+00-4.753518782E+00+
*       1.2725895204E+02               0
GRID*               5434               0-4.666026371E+00-3.443821435E+00+
*       1.2513532081E+02               0
GRID*               5435               0-1.493025392E+00-5.447048107E+00+
*       1.2898981935E+02               0
GRID*               5436               0-4.299639436E+001.6401035548E+00+
*       4.2660610484E+01               0
GRID*               5437               0-4.467569077E+002.5345185789E+00+
*       4.6459925998E+01               0
GRID*               5438               04.9186845155E+001.0938947595E+00+
*       5.2857685110E+01               0
GRID*               5439               04.9276255349E+001.1538988184E+00+
*       4.9436920121E+01               0
GRID*               5440               0-7.026185258E-01-4.467308971E+00+
*       4.6392928135E+01               0
GRID*               5441               0-2.850401564E+003.4014175997E+00+
*       2.3459387818E+01               0
GRID*               5442               0-2.694074658E+00-3.414313544E+00+
*       4.2660610484E+01               0
GRID*               5443               06.5639006441E-02-1.075394198E+00+
*       4.4655913994E+01               0
GRID*               5444               05.5788355828E+002.5210087683E-01+
*       1.2179412764E+02               0
GRID*               5445               0-4.665982578E+00-3.443888729E+00+
*       1.2295019815E+02               0
GRID*               5446               0-2.801430871E+00-2.717394862E+00+
*       1.2252120707E+02               0
GRID*               5447               0-3.401960088E+00-1.226107827E+00+
*       1.2167608594E+02               0
GRID*               5448               03.3060801914E+00-1.705865090E-01+
*       1.6376710963E+02               0
GRID*               5449               0-1.000593082E+004.9584519721E+00+
*       1.7041983713E+02               0
GRID*               5450               02.1938964250E+005.0306363469E+00+
*       1.6801110056E+02               0
GRID*               5451               05.0438003154E+002.0770456300E+00+
*       1.6246449857E+02               0
GRID*               5452               03.1345072067E+003.9950819233E+00+
*       1.6049619373E+02               0
GRID*               5453               05.0172201865E+00-2.681261588E+00+
*       1.5415148998E+02               0
GRID*               5454               05.6023121176E+004.3406857319E-01+
*       1.5770915779E+02               0
GRID*               5455               05.6544366796E+002.4129323640E-01+
*       1.6018475931E+02               0
GRID*               5456               05.6022834755E+004.3428601082E-01+
*       1.5566908246E+02               0
GRID*               5457               05.3570199219E+00-7.777783150E-01+
*       1.5415148998E+02               0
GRID*               5458               05.6544686865E+002.4105025450E-01+
*       1.6246449991E+02               0
GRID*               5459               01.0571862444E+005.3122526940E+00+
*       1.5144533205E+02               0
GRID*               5460               05.1957058773E+00-3.254935810E+00+
*       -3.443279558E+00               0
GRID*               5461               03.7763684704E+00-4.674273217E+00+
*       -3.443279558E+00               0
GRID*               5462               04.3644001838E+003.7497980427E+00+
*       7.4736766103E+01               0
GRID*               5463               03.3516347059E+003.5231451882E+00+
*       2.2199044366E+02               0
GRID*               5464               0-6.597369815E-015.5217329543E+00+
*       2.1937596893E+02               0
GRID*               5465               0-2.493251364E+004.8864792016E+00+
*       2.1937596894E+02               0
GRID*               5466               0-3.257214489E+004.2949190106E+00+
*       2.1695751384E+02               0
GRID*               5467               0-4.737691303E+00-2.182406663E+00+
*       2.1982893191E+02               0
GRID*               5468               0-5.063898750E+00-5.795408095E-01+
*       2.1676410833E+02               0
GRID*               5469               0-5.962906652E-015.8735196121E+00+
*       2.3891792736E+02               0
GRID*               5470               0-6.240566592E-015.8275667537E+00+
*       2.3706580647E+02               0
GRID*               5471               03.1687654117E-01-5.476306632E+00+
*       2.4330402906E+02               0
GRID*               5472               01.6228216242E-01-5.815673053E+00+
*       2.4121379468E+02               0
GRID*               5473               0-5.364637692E+001.3032933774E+00+
*       2.4333240538E+02               0
GRID*               5474               0-5.119084266E+007.8191622654E-01+
*       2.4121014919E+02               0
GRID*               5475               0-4.246271155E+003.2327751049E+00+
*       2.4285171521E+02               0
GRID*               5476               0-5.364584064E+001.3034037828E+00+
*       2.4535546208E+02               0
GRID*               5477               0-3.365403501E+001.2599272253E+00+
*       1.2236754351E+02               0
GRID*               5478               0-2.447223799E+002.5542718578E+00+
*       1.2372839981E+02               0
GRID*               5479               0-1.066625108E+009.9797201197E-01+
*       1.2255668795E+02               0
GRID*               5480               0-4.313732392E+007.3163807240E-01+
*       -3.467009449E+00               0
GRID*               5481               0-3.015704876E+00-8.884282290E-01+
*       -3.467009449E+00               0
GRID*               5482               0-4.726426048E-01-1.723663194E+00+
*       -3.517697139E+00               0
GRID*               5483               04.1223162081E-01-5.752126758E+00+
*       5.3956155060E+00               0
GRID*               5484               03.4238373358E-01-5.811224578E+00+
*       3.0721441780E+00               0
GRID*               5485               06.3424218149E-012.3424728771E+00+
*       -3.483575518E+00               0
GRID*               5486               0-2.812055075E+002.2981777971E+00+
*       1.1991250741E+02               0
GRID*               5487               0-3.211749451E+007.1092828623E-01+
*       1.2034848728E+02               0
GRID*               5488               0-8.079801512E-015.1260961649E-01+
*       1.2071346383E+02               0
GRID*               5489               0-2.502925804E+00-1.183038148E-01+
*       2.6742104843E+02               0
GRID*               5490               0-1.688278455E+00-1.850039505E+00+
*       2.6365639214E+02               0
GRID*               5491               01.7316007285E+001.8511748946E+00+
*       2.6002624282E+02               0
GRID*               5492               01.6771773469E+001.8477313575E+00+
*       2.6365639410E+02               0
GRID*               5493               0-1.228271923E-012.4962428591E+00+
*       2.6365639223E+02               0
GRID*               5494               04.3026068914E-021.4220546003E-03+
*       2.6190866919E+02               0
GRID*               5495               0-1.822004191E+001.6838759472E+00+
*       2.7103768603E+02               0
GRID*               5496               0-2.471012706E+00-1.168629575E-01+
*       2.7103768605E+02               0
GRID*               5497               0-1.853917289E+001.6824350898E+00+
*       2.6742104841E+02               0
GRID*               5498               0-9.100919679E-022.4976790766E+00+
*       2.7103768322E+02               0
GRID*               5499               0-1.229222949E-012.4962382193E+00+
*       2.6742104561E+02               0
GRID*               5500               03.6815504097E+003.7464339228E+00+
*       1.0378479667E+02               0
GRID*               5501               01.7438801793E+00-4.663833182E+00+
*       1.5764872055E+01               0
GRID*               5502               03.1370097248E+002.8095775761E+00+
*       1.2413514466E+01               0
GRID*               5503               04.5717498600E+001.5005256334E+00+
*       1.2413513837E+01               0
GRID*               5504               0-3.184080475E-01-7.518969924E-01+
*       1.1137407024E+01               0
GRID*               5505               05.1407089379E+00-3.507330173E-01+
*       1.2413514583E+01               0
GRID*               5506               04.7433302163E+00-2.244599071E+00+
*       1.2413514466E+01               0
GRID*               5507               04.8883872568E+001.2225142320E-01+
*       1.5182262739E+01               0
GRID*               5508               05.3144035889E+00-1.662395009E+00+
*       1.6246449981E+02               0
GRID*               5509               0-2.084164978E+005.2818518022E+00+
*       1.4149460032E+02               0
GRID*               5510               02.5439479873E+005.8746057737E+00+
*       -1.136891545E+00               0
GRID*               5511               03.9787631914E+004.5657106039E+00+
*       -1.136891545E+00               0
GRID*               5512               02.2398978651E+005.0715626072E+00+
*       1.0740979367E+00               0
GRID*               5513               01.3365300673E+004.2853918884E+00+
*       -6.279360866E-02               0
GRID*               5514               02.7552287404E+00-5.275222197E+00+
*       1.1763157138E+02               0
GRID*               5515               03.3284586211E+00-3.021394858E+00+
*       1.9247327515E+02               0
GRID*               5516               04.0546300694E+00-1.448519352E+00+
*       1.8958699395E+02               0
GRID*               5517               0-4.731758483E+00-2.155031938E+00+
*       8.1121396264E+01               0
GRID*               5518               0-3.297484453E+00-3.464395193E+00+
*       8.1121394869E+01               0
GRID*               5519               0-4.060027735E+00-2.049951639E+00+
*       7.8494532358E+01               0
GRID*               5520               0-5.318669068E+00-3.054688776E-01+
*       8.1121396261E+01               0
GRID*               5521               0-4.902333804E+001.5902474998E+00+
*       8.1121394869E+01               0
GRID*               5522               03.9887384984E+003.5096694618E+00+
*       8.4258744899E+01               0
GRID*               5523               0-4.096131112E+00-3.573509285E-01+
*       1.5984115072E+02               0
GRID*               5524               02.0331948632E+00-5.317062197E+00+
*       1.4929780487E+02               0
GRID*               5525               01.8342167883E-01-5.903331903E+00+
*       1.4929780487E+02               0
GRID*               5526               01.4021056564E-02-5.809871012E+00+
*       1.5113490242E+02               0
GRID*               5527               0-5.385808947E+00-6.519962817E-02+
*       1.2690318326E+02               0
GRID*               5528               0-5.853034557E+00-1.028288901E-01+
*       1.2429019965E+02               0
GRID*               5529               0-5.266555588E+00-1.952534401E+00+
*       1.2429019968E+02               0
GRID*               5530               0-3.657284706E-015.8829704097E+00+
*       1.3119074798E+02               0
GRID*               5531               0-2.956326343E-015.9939529145E+00+
*       1.2922292879E+02               0
GRID*               5532               0-2.553554866E+00-1.004074853E-01+
*       1.2107941344E+02               0
GRID*               5533               0-4.760251541E+002.3301633780E+00+
*       9.5186068865E+01               0
GRID*               5534               0-4.941667037E+002.8224851230E+00+
*       9.7788778519E+01               0
GRID*               5535               05.6229889215E+002.8114492952E-01+
*       1.0801813529E+02               0
GRID*               5536               04.7102088645E+00-2.487984749E-02+
*       1.0550044977E+02               0
GRID*               5537               04.6872175216E+005.9943288736E-01+
*       9.4564290278E+01               0
GRID*               5538               01.6522411395E+005.1842576166E+00+
*       1.4329294694E+02               0
GRID*               5539               0-2.432649864E-015.6011533235E+00+
*       1.4329294691E+02               0
GRID*               5540               0-2.431971480E-015.6011565624E+00+
*       1.4527697503E+02               0
GRID*               5541               0-5.858964763E-015.7577584543E+00+
*       1.4780929192E+02               0
GRID*               5542               0-2.435659469E+005.1714571855E+00+
*       1.4780929193E+02               0
GRID*               5543               0-5.112811947E+00-2.501670877E+00+
*       1.1782804260E+02               0
GRID*               5544               0-3.248306038E+00-1.775106766E+00+
*       1.1965702972E+02               0
GRID*               5545               0-4.454617362E+00-3.313006648E+00+
*       1.1855896876E+02               0
GRID*               5546               0-4.114400958E+00-3.459341468E+00+
*       1.1638897828E+02               0
GRID*               5547               0-5.282699811E+001.2435843574E+00+
*       1.1782804227E+02               0
GRID*               5548               0-3.977583022E+00-3.765691370E-01+
*       1.1627794129E+02               0
GRID*               5549               0-2.680378728E+00-4.768969619E+00+
*       1.1864695624E+02               0
GRID*               5550               0-4.060154673E+00-4.147720557E-01+
*       1.2094515978E+02               0
GRID*               5551               0-2.680236912E+00-4.769042956E+00+
*       1.1404644004E+02               0
GRID*               5552               0-1.020571997E+00-5.188450867E+00+
*       1.1334739533E+02               0
GRID*               5553               09.0554971638E-01-5.861781894E+00+
*       1.1763157136E+02               0
GRID*               5554               08.7493194833E-01-5.605085334E+00+
*       1.1568993354E+02               0
GRID*               5555               0-5.215635896E+002.6855271755E+00+
*       1.0541405779E+02               0
GRID*               5556               0-3.301839526E-01-5.410456331E+00+
*       1.2650939481E+01               0
GRID*               5557               0-1.055417053E-01-5.251217927E+00+
*       1.5764872061E+01               0
GRID*               5558               05.1010549549E+005.4787277701E-01+
*       2.2647282575E+01               0
GRID*               5559               04.5716716406E+001.5006437406E+00+
*       9.6673589248E+00               0
GRID*               5560               01.0087141436E+004.7163833799E+00+
*       1.2248557393E+01               0
GRID*               5561               02.4433760594E+003.4074495444E+00+
*       9.5024018514E+00               0
GRID*               5562               03.6366967002E+003.9152474598E+00+
*       7.3972843181E+00               0
GRID*               5563               04.1457074999E-02-5.812263741E+00+
*       1.3095105685E+02               0
GRID*               5564               01.7580281869E+00-5.148780172E+00+
*       1.3928947875E+02               0
GRID*               5565               01.8551547348E-01-5.910005755E+00+
*       1.3753295914E+02               0
GRID*               5566               0-5.858324502E-015.7577616735E+00+
*       1.4978357193E+02               0
GRID*               5567               0-4.969057563E+001.8303492323E+00+
*       1.2690318312E+02               0
GRID*               5568               0-4.518103471E+003.0870646030E+00+
*       1.2565105582E+02               0
GRID*               5569               0-2.344823534E-015.8681831141E+00+
*       1.3949098328E+02               0
GRID*               5570               04.5321806159E+002.3990968613E+00+
*       2.6459034588E+01               0
GRID*               5571               04.1382835484E-02-5.812267571E+00+
*       1.3302418050E+02               0
GRID*               5572               03.5412918557E+004.0001808693E+00+
*       1.1512250918E+02               0
GRID*               5573               04.9753356272E+002.6905902685E+00+
*       1.1277997172E+02               0
GRID*               5574               05.7610152324E+005.9477519881E-02+
*       1.1977139245E+02               0
GRID*               5575               05.5436686293E+008.3900312065E-01+
*       1.1277997106E+02               0
GRID*               5576               05.6229994922E+002.8106462254E-01+
*       1.1045716523E+02               0
GRID*               5577               04.1440572211E+00-1.663782061E+00+
*       1.0025827731E+02               0
GRID*               5578               05.0546664901E+002.1326517704E+00+
*       1.1045716589E+02               0
GRID*               5579               05.1406938581E+00-3.506185018E-01+
*       9.6673593347E+00               0
GRID*               5580               04.9002842911E+001.7393133554E+00+
*       7.3970329518E+00               0
GRID*               5581               03.6366320571E+003.9153450195E+00+
*       5.1351740815E+00               0
GRID*               5582               0-2.863918078E+002.0988251711E+00+
*       2.9865171099E+02               0
GRID*               5583               0-3.512762715E+002.9802060622E-01+
*       2.9865171099E+02               0
GRID*               5584               0-3.512764143E+002.9806173925E-01+
*       2.9666144726E+02               0
GRID*               5585               0-4.494165736E+001.3538076557E+00+
*       5.7023521735E+01               0
GRID*               5586               02.2018411835E+005.2242813424E+00+
*       5.1351741677E+00               0
GRID*               5587               03.0607355430E-015.6399697311E+00+
*       5.1351740899E+00               0
GRID*               5588               0-5.878043186E+00-6.119466026E-01+
*       1.5839261058E+02               0
GRID*               5589               0-5.332985895E+001.6185139194E+00+
*       1.6052869039E+02               0
GRID*               5590               0-5.698393063E+00-2.877801277E-01+
*       1.6052869006E+02               0
GRID*               5591               05.0556091296E+005.4319451283E-01+
*       2.0723005168E+02               0
GRID*               5592               04.9890216027E+009.2950166693E-01+
*       2.0348253989E+02               0
GRID*               5593               0-5.540770716E+002.2789510827E-01+
*       2.2998173374E+02               0
GRID*               5594               0-5.242093906E+00-2.464390959E-01+
*       2.2778943842E+02               0
GRID*               5595               02.3910212827E+001.8144502551E+00+
*       2.9087110730E+02               0
GRID*               5596               02.3910433043E+001.8144281004E+00+
*       2.8859134748E+02               0
GRID*               5597               0-5.112857744E+00-2.501600633E+00+
*       1.2008602080E+02               0
GRID*               5598               0-5.282663842E+001.2436539085E+00+
*       1.2008602056E+02               0
GRID*               5599               0-4.382577147E+00-2.321755793E+00+
*       1.7132232076E+02               0
GRID*               5600               0-4.587877950E+002.9184203123E+00+
*       1.2369352702E+02               0
GRID*               5601               0-2.324047121E+005.1166717659E+00+
*       1.1100574288E+02               0
GRID*               5602               0-2.495991468E+005.2237361943E+00+
*       1.1311152965E+02               0
GRID*               5603               03.9765060941E+002.0755529154E+00+
*       3.4776596999E+01               0
GRID*               5604               03.9764803543E+002.0756045914E+00+
*       3.0883085066E+01               0
GRID*               5605               0-5.699371645E+00-6.519918526E-01+
*       1.1782804258E+02               0
GRID*               5606               04.9730564691E+001.7238454939E-01+
*       7.0345759151E+01               0
GRID*               5607               02.7571629844E+005.9004278240E+00+
*       -3.636891545E+00               0
GRID*               5608               04.7621081059E-013.1521092230E+00+
*       2.9800973619E+02               0
GRID*               5609               0-1.133096104E+002.9127771214E+00+
*       2.9865171099E+02               0
GRID*               5610               0-5.477533923E+00-4.031423116E-01+
*       1.0050113506E+01               0
GRID*               5611               0-5.318675588E+00-3.053523187E-01+
*       8.4207257530E+01               0
GRID*               5612               0-1.633855074E+00-1.846595968E+00+
*       2.6002624085E+02               0
GRID*               5613               01.6559488434E-01-2.494817768E+00+
*       2.6002624282E+02               0
GRID*               5614               01.6546349264E-01-2.494832776E+00+
*       2.5660261676E+02               0
GRID*               5615               01.8970486485E+00-1.680926457E+00+
*       2.5660261781E+02               0
GRID*               5616               0-1.799413476E+001.6859720669E+00+
*       2.6002624283E+02               0
GRID*               5617               0-2.448511825E+00-1.147360057E-01+
*       2.6002624282E+02               0
GRID*               5618               0-2.502935207E+00-1.181795428E-01+
*       2.6365639411E+02               0
GRID*               5619               04.1477563414E+00-1.669733477E+00+
*       3.4776595419E+01               0
GRID*               5620               0-2.448526824E+00-1.146047003E-01+
*       2.5660261676E+02               0
GRID*               5621               0-1.633876350E+00-1.846576704E+00+
*       2.5660261751E+02               0
GRID*               5622               0-2.204361323E+00-1.825641851E+00+
*       2.8604022758E+02               0
GRID*               5623               03.1760348915E+001.9422532788E-01+
*       2.8618385430E+02               0
GRID*               5624               0-2.983658207E-01-5.555847232E+00+
*       1.4281119060E+02               0
GRID*               5625               01.5513864592E+00-4.969512497E+00+
*       1.4281119062E+02               0
GRID*               5626               0-3.421242686E+00-4.008409436E+00+
*       1.4129309578E+02               0
GRID*               5627               0-1.987288819E+00-5.318256967E+00+
*       1.4129309578E+02               0
GRID*               5628               0-3.421204918E+00-4.008468037E+00+
*       1.3928947875E+02               0
GRID*               5629               01.7317041482E+001.8510926678E+00+
*       2.5660261676E+02               0
GRID*               5630               03.6331857467E+00-4.688837448E+00+
*       1.4481603197E+02               0
GRID*               5631               0-2.193871947E+00-5.138951525E+00+
*       1.4281119062E+02               0
GRID*               5632               0-5.222233854E+002.2728299383E+00+
*       1.5353367422E+02               0
GRID*               5633               0-2.760421888E+00-4.867420486E+00+
*       2.3519045120E+02               0
GRID*               5634               0-4.228202336E+00-3.595938899E+00+
*       2.3519045171E+02               0
GRID*               5635               04.1981742736E+002.2771365415E+00+
*       1.8126339874E+02               0
GRID*               5636               03.7850671208E+002.2913404315E+00+
*       1.8571172179E+02               0
GRID*               5637               02.4802207047E+001.1495305152E-01+
*       2.6365639240E+02               0
GRID*               5638               05.4293515705E+004.1539260974E-01+
*       2.2199044331E+02               0
GRID*               5639               0-5.119140396E+007.8180068152E-01+
*       2.3912149131E+02               0
GRID*               5640               0-5.485984944E+00-1.124246853E+00+
*       2.3912149180E+02               0
GRID*               5641               04.7498962272E+003.4529150307E+00+
*       2.4514632771E+02               0
GRID*               5642               04.7498230582E+003.4530219854E+00+
*       2.4312327118E+02               0
GRID*               5643               0-3.581208783E+00-4.906356598E+00+
*       1.4287078910E+02               0
GRID*               5644               0-2.116784560E+00-3.566114734E+00+
*       1.4208050110E+02               0
GRID*               5645               0-2.370299060E+001.7069773607E+00+
*       2.8345681066E+02               0
GRID*               5646               05.3201648776E+00-2.555825199E+00+
*       2.4534819761E+02               0
GRID*               5647               02.1164406792E+00-5.423735403E+00+
*       2.4800926435E+02               0
GRID*               5648               0-5.436283173E+001.7927199704E+00+
*       1.2429019952E+02               0
GRID*               5649               0-3.208439795E+004.5210655072E+00+
*       1.2346593333E+02               0
GRID*               5650               0-5.436317892E+001.7926528476E+00+
*       1.2210507679E+02               0
GRID*               5651               0-5.853030257E+00-1.029091200E-01+
*       1.2210507700E+02               0
GRID*               5652               0-5.699376207E+00-6.519080591E-01+
*       1.2008602078E+02               0
GRID*               5653               0-5.266511795E+00-1.952601694E+00+
*       1.2210507702E+02               0
GRID*               5654               04.3788930807E+002.7660014143E+00+
*       2.0348254471E+02               0
GRID*               5655               0-1.656200319E+00-1.848745070E+00+
*       2.7446253274E+02               0
GRID*               5656               02.3728432566E+001.9268962443E+00+
*       2.8618385521E+02               0
GRID*               5657               01.3984981176E+004.3502281933E-02+
*       2.8748427596E+02               0
GRID*               5658               05.7271728253E-012.5752242325E+00+
*       2.8618385445E+02               0
GRID*               5659               0-3.039439631E+00-2.132141141E-01+
*       2.9052184539E+02               0
GRID*               5660               0-2.224558270E+00-1.945005349E+00+
*       2.8824208508E+02               0
GRID*               5661               0-3.039439537E+00-2.131828444E-01+
*       2.8824208557E+02               0
GRID*               5662               0-5.287610052E+00-1.380183475E+00+
*       1.5088013511E+02               0
GRID*               5663               0-5.063823935E+00-6.459214614E-01+
*       1.8987613024E+02               0
GRID*               5664               0-4.697774838E+001.2602732905E+00+
*       1.8600085129E+02               0
GRID*               5665               04.9430596983E+00-3.254906144E+00+
*       1.4481603199E+02               0
GRID*               5666               03.9834731596E+00-2.969147420E+00+
*       1.7432830645E+02               0
GRID*               5667               01.2265524111E+00-2.992775113E+00+
*       2.9681579113E+02               0
GRID*               5668               01.7442166356E+00-1.254756116E-02+
*       2.9609947827E+02               0
GRID*               5669               0-5.004258574E+00-2.103114942E+00+
*       1.4949619875E+02               0
GRID*               5670               0-3.388809600E+00-1.844779989E-01+
*       2.9254532416E+02               0
GRID*               5671               0-2.520863783E+005.1153424027E+00+
*       1.5228357193E+02               0
GRID*               5672               04.9413453178E+001.8346767517E+00+
*       1.5394533205E+02               0
GRID*               5673               0-5.590528280E+00-2.533417577E-01+
*       1.4949619875E+02               0
GRID*               5674               04.2853830461E+002.3227150654E+00+
*       2.1356803674E+02               0
GRID*               5675               05.0556338932E+005.4300634615E-01+
*       2.1046578530E+02               0
GRID*               5676               0-2.990617784E+003.0744746665E+00+
*       3.8814491617E+01               0
GRID*               5677               0-4.299696018E+001.6399945005E+00+
*       3.8814490037E+01               0
GRID*               5678               0-3.170250711E+003.1147666471E+00+
*       3.4479745644E+01               0
GRID*               5679               0-4.479328945E+001.6802864811E+00+
*       3.4479744064E+01               0
GRID*               5680               0-4.715699649E+00-2.558359105E-01+
*       3.8814491613E+01               0
GRID*               5681               0-4.895332576E+00-2.155439299E-01+
*       3.4479745640E+01               0
GRID*               5682               02.4834112427E+00-1.200109456E+00+
*       2.9321864618E+02               0
GRID*               5683               04.9781987824E+003.7540358003E+00+
*       2.4107012485E+02               0
GRID*               5684               0-8.614372350E-022.4977441753E+00+
*       2.8065470286E+02               0
GRID*               5685               0-1.817046473E+001.6838829016E+00+
*       2.8065470420E+02               0
GRID*               5686               0-1.817020094E+001.6839082638E+00+
*       2.7766914454E+02               0
GRID*               5687               04.7885420081E+003.9504857956E+00+
*       2.4800926436E+02               0
GRID*               5688               01.2285753859E+001.1378606167E+00+
*       2.9729342341E+02               0
GRID*               5689               02.5171379774E+001.1662236041E-01+
*       2.7766914224E+02               0
GRID*               5690               05.8593209412E+00-1.521952373E+00+
*       2.4800926431E+02               0
GRID*               5691               05.2217186457E+00-3.321247369E+00+
*       2.4800926431E+02               0
GRID*               5692               02.2763753422E+002.5038310061E+00+
*       2.9800973628E+02               0
GRID*               5693               03.5952382354E+00-3.791563557E-01+
*       2.9880605486E+02               0
GRID*               5694               02.7920165919E+001.3534228283E+00+
*       2.9681579114E+02               0
GRID*               5695               04.5423158980E+002.2989776791E-01+
*       1.0025827706E+02               0
GRID*               5696               0-1.140939560E+005.3353735449E+00+
*       2.4487477194E+02               0
GRID*               5697               04.5423043369E+002.2998559927E-01+
*       9.7590721823E+01               0
GRID*               5698               03.5952434619E+00-3.791994607E-01+
*       2.9681579103E+02               0
GRID*               5699               0-1.853836857E+001.6825285297E+00+
*       2.6365639412E+02               0
GRID*               5700               0-5.158055393E+00-1.240333179E-01+
*       6.4350735463E+01               0
GRID*               5701               01.8426431838E+00-1.684350311E+00+
*       2.6365639240E+02               0
GRID*               5702               0-2.697827362E+00-1.433747357E+00+
*       2.9666144721E+02               0
GRID*               5703               0-4.794911588E-01-3.152373433E+00+
*       2.9800973627E+02               0
GRID*               5704               03.1207219652E+005.9932117174E-01+
*       2.9530315957E+02               0
GRID*               5705               0-4.048974054E-01-2.473644273E+00+
*       2.8604022807E+02               0
GRID*               5706               08.0726672078E-01-2.419256377E+00+
*       2.8618385519E+02               0
GRID*               5707               01.6813394364E-011.0158252992E-01+
*       2.8493315657E+02               0
GRID*               5708               01.4793699580E-01-1.778096825E-02+
*       2.8713501407E+02               0
GRID*               5709               0-2.224530266E+00-1.945031497E+00+
*       2.9052184518E+02               0
GRID*               5710               04.5453912036E+002.2410318075E-01+
*       3.4776595601E+01               0
GRID*               5711               04.5453743291E+002.2423137767E-01+
*       3.0883084618E+01               0
GRID*               5712               0-1.656257247E+00-1.848693399E+00+
*       2.7103768409E+02               0
GRID*               5713               0-2.471011639E+00-1.169191465E-01+
*       2.7446253416E+02               0
GRID*               5714               02.5121149228E+001.1654961855E-01+
*       2.7446253184E+02               0
GRID*               5715               0-2.573872158E+00-1.916321349E+00+
*       2.9462983721E+02               0
GRID*               5716               0-4.741880287E+001.7716439094E+00+
*       6.0822155689E+01               0
GRID*               5717               01.8558725540E-01-5.910002136E+00+
*       1.3549973092E+02               0
GRID*               5718               02.5386396688E+00-1.605190940E+00+
*       2.8360043623E+02               0
GRID*               5719               02.5386782895E+00-1.605148549E+00+
*       2.8618385430E+02               0
GRID*               5720               0-4.049285696E-01-2.473643596E+00+
*       2.8345681067E+02               0
GRID*               5721               08.0723555661E-01-2.419255700E+00+
*       2.8360043779E+02               0
GRID*               5722               01.4832401801E-01-2.496738055E+00+
*       2.8065470420E+02               0
GRID*               5723               0-4.907775950E-012.4100174965E-02+
*       2.8198742297E+02               0
GRID*               5724               0-8.607944092E-022.4977471850E+00+
*       2.7766914246E+02               0
GRID*               5725               02.5568783372E+00-1.717616693E+00+
*       2.8859134657E+02               0
GRID*               5726               01.8797281302E+00-1.682673295E+00+
*       2.8065470263E+02               0
GRID*               5727               0-1.553383896E+00-5.395536189E+00+
*       3.0721442557E+00               0
GRID*               5728               0-8.916860853E-01-5.257732969E+00+
*       2.3463813997E+02               0
GRID*               5729               04.4678385051E+00-1.462514461E+00+
*       1.8126339671E+02               0
GRID*               5730               08.7931355465E-01-5.073434342E+00+
*       1.7432830434E+02               0
GRID*               5731               04.2026696072E+00-1.828315757E+00+
*       3.8300712108E+01               0
GRID*               5732               0-1.589257299E+00-5.109341268E+00+
*       2.4532708556E+02               0
GRID*               5733               04.7101978238E+00-2.479596989E-02+
*       1.0295297537E+02               0
GRID*               5734               0-5.478800175E+00-2.771283094E-01+
*       1.1125412237E+02               0
GRID*               5735               05.7276781510E-012.5752265302E+00+
*       2.8360043645E+02               0
GRID*               5736               0-2.465988585E+00-1.168464047E-01+
*       2.7766914456E+02               0
GRID*               5737               0-1.651177265E+00-1.848672328E+00+
*       2.7766914314E+02               0
GRID*               5738               05.7451938085E-029.3297400052E-04+
*       2.7597870611E+02               0
GRID*               5739               0-4.820959050E+00-4.298350564E-01+
*       1.8270726195E+02               0
GRID*               5740               0-5.063824713E+00-6.460180525E-01+
*       1.8600085329E+02               0
GRID*               5741               0-4.428110606E+00-2.479377712E+00+
*       1.8600085333E+02               0
GRID*               5742               02.3170276884E+003.5620387032E+00+
*       1.8958699395E+02               0
GRID*               5743               04.4955491347E+001.9632192006E+00+
*       2.2411059302E+02               0
GRID*               5744               04.8195176035E+002.2518873598E+00+
*       2.2199044582E+02               0
GRID*               5745               0-2.760300036E+00-4.867479680E+00+
*       2.3300115925E+02               0
GRID*               5746               0-2.573900235E+00-1.916295382E+00+
*       2.9254532395E+02               0
GRID*               5747               02.4834416257E+00-1.200076078E+00+
*       2.9530315957E+02               0
GRID*               5748               01.7089957630E+001.8492535628E+00+
*       2.7103768605E+02               0
GRID*               5749               01.6770826649E+001.8478127054E+00+
*       2.6742104844E+02               0
GRID*               5750               01.7089552665E+001.8492925415E+00+
*       2.7446253417E+02               0
GRID*               5751               0-9.110249547E-022.4976744431E+00+
*       2.7446253206E+02               0
GRID*               5752               04.8764975336E+007.5055929180E-01+
*       1.7052889174E+02               0
GRID*               5753               0-5.485996002E+00-1.124107208E+00+
*       2.4121014938E+02               0
GRID*               5754               0-4.691397915E+00-1.709629870E-01+
*       1.9340965428E+02               0
GRID*               5755               0-6.393963111E-012.5208386344E+00+
*       2.8345680933E+02               0
GRID*               5756               01.8796842166E+00-1.682721519E+00+
*       2.7766914223E+02               0
GRID*               5757               01.4828758327E-01-2.496737326E+00+
*       2.7766914455E+02               0
GRID*               5758               0-3.388808939E+00-1.845122527E-01+
*       2.9462983726E+02               0
GRID*               5759               03.1207274393E+005.9927602551E-01+
*       2.9321864618E+02               0
GRID*               5760               0-1.651139296E+00-1.848707655E+00+
*       2.8065470330E+02               0
GRID*               5761               04.0547313523E+00-1.448310571E+00+
*       1.8571171976E+02               0
GRID*               5762               0-5.241758047E+00-2.445109509E+00+
*       1.5839261057E+02               0
GRID*               5763               04.8084916913E+004.4086230464E-01+
*       1.8126339708E+02               0
GRID*               5764               04.3953845385E+004.5506619457E-01+
*       1.8571172013E+02               0
GRID*               5765               0-3.419469645E+00-3.347314207E+00+
*       1.3542276568E+02               0
GRID*               5766               0-5.731549429E+00-6.027300569E-01+
*       2.4333240558E+02               0
GRID*               5767               0-9.781527700E-03-4.971909428E+00+
*       2.1908903506E+01               0
GRID*               5768               0-1.056832198E-01-5.251224345E+00+
*       1.9148501110E+01               0
GRID*               5769               0-1.822043149E+001.6838355219E+00+
*       2.7446253414E+02               0
GRID*               5770               04.3954141966E+004.5484083687E-01+
*       1.8958699435E+02               0
GRID*               5771               03.7851155764E+002.2912552204E+00+
*       1.8958699871E+02               0
GRID*               5772               02.1213433767E+00-4.385693249E+00+
*       2.0366480432E+02               0
GRID*               5773               05.0810544209E+001.2429796084E-01+
*       1.6771673049E+02               0
GRID*               5774               03.1854019071E+00-4.553135518E+00+
*       7.4635778371E+01               0
GRID*               5775               0-2.465989318E+00-1.168827454E-01+
*       2.8065470421E+02               0
GRID*               5776               01.9332236084E+00-4.724489407E+00+
*       2.0655553029E+02               0
GRID*               5777               01.6767491792E+004.8972598850E+00+
*       2.1565260057E+02               0
GRID*               5778               0-5.018546996E+00-4.884799121E-01+
*       1.7132232077E+02               0
$*
$* ELEMENT CARDS
$*
$*  Mesh Collector: Solid(1)
$*  Mesh: 3d_mesh(1)
CTETRA         1       2     542    2603    2604    2605    2877    2878+
+           2879    2880    2881    2882
CTETRA         2       2    2604    2606    2607    2605    2883    2884+
+           2885    2882    2886    2887
CTETRA         3       2    2608    2609    2610    2605    2888    2889+
+           2890    2891    2892    2893
CTETRA         4       2     542    2610    2611    2605    2894    2895+
+           2896    2880    2893    2897
CTETRA         5       2    2612    2609    2606    2605    2898    2899+
+           2900    2901    2892    2886
CTETRA         6       2    2612    2611    2610    2605    2902    2895+
+           2903    2901    2897    2893
CTETRA         7       2    2612    2610    2609    2605    2903    2889+
+           2898    2901    2893    2892
CTETRA         8       2     192    2613    1642    2614    2904    2905+
+           2162    2906    2907    2908
CTETRA         9       2     190    2615    2616    2617    2909    2910+
+           2911    2912    2913    2914
CTETRA        10       2     190    2616     191    2617    2911    2915+
+            195    2912    2914    2916
CTETRA        11       2     192    2616    2613    2614    2917    2918+
+           2904    2906    2919    2907
CTETRA        12       2    2618    2619    2620    2621    2920    2921+
+           2922    2923    2924    2925
CTETRA        13       2    1521    2622    2623    2621    2926    2927+
+           2928    2929    2930    2931
CTETRA        14       2    2624    2625    2623    2621    2932    2933+
+           2934    2935    2936    2931
CTETRA        15       2    1521    2622    2626    2623    2926    2937+
+           2938    2928    2927    2939
CTETRA        16       2    1563    1574    1573    2627    1907    1906+
+           1905    2940    2941    2942
CTETRA        17       2    1522    2619    2622    2621    2943    2944+
+           2945    2946    2924    2930
CTETRA        18       2    2626    2628    2629    2630    2947    2948+
+           2949    2950    2951    2952
CTETRA        19       2    2626    2622    2624    2623    2937    2953+
+           2954    2939    2927    2934
CTETRA        20       2    1530    2629    2625    2623    2955    2956+
+           2957    2958    2959    2933
CTETRA        21       2    2626    2624    2629    2623    2954    2960+
+           2949    2939    2934    2959
CTETRA        22       2    2631    2623    2625    2621    2961    2933+
+           2962    2963    2931    2936
CTETRA        23       2    1620    2632    2633    2634    2964    2965+
+           2966    2967    2968    2969
CTETRA        24       2    2632    2635    2636    2634    2970    2971+
+           2972    2968    2973    2974
CTETRA        25       2    1631    2635    2632    2634    2975    2970+
+           2976    2977    2973    2968
CTETRA        26       2    2637    2636    2638    2634    2978    2979+
+           2980    2981    2974    2982
CTETRA        27       2    1623    2638    2636    2634    2983    2979+
+           2984    2985    2982    2974
CTETRA        28       2    1622    1623    1633    2634    2043    2073+
+           2072    2986    2985    2987
CTETRA        29       2     416     417     427    2639     971    1001+
+           1000    2988    2989    2990
CTETRA        30       2     336    2640    2641    2642    2991    2992+
+           2993    2994    2995    2996
CTETRA        31       2     335    2643    2644    2642    2997    2998+
+           2999    3000    3001    3002
CTETRA        32       2     324     335    2644    2642     740    2999+
+           3003    3004    3000    3002
CTETRA        33       2    2645    2646    2647    2648    3005    3006+
+           3007    3008    3009    3010
CTETRA        34       2     371     382    2646    2648     873    3011+
+           3012    3013    3014    3009
CTETRA        35       2     466     477     476    2649    1142    1141+
+           1140    3015    3016    3017
CTETRA        36       2     373    2650    2651    2648    3018    3019+
+           3020    3021    3022    3023
CTETRA        37       2    2645    2651    2646    2648    3024    3025+
+           3005    3008    3023    3009
CTETRA        38       2     373    2651     384    2648    3020    3026+
+            879    3021    3023    3027
CTETRA        39       2     384    2651    2652    2648    3026    3028+
+           3029    3027    3023    3030
CTETRA        40       2    2653    2654    2655    2656    3031    3032+
+           3033    3034    3035    3036
CTETRA        41       2     281     282     292    2657     590     620+
+            619    3037    3038    3039
CTETRA        42       2     375    2655     376    2654    3040    3041+
+            856    3042    3032    3043
CTETRA        43       2     373    2651    2658    2656    3020    3044+
+           3045    3046    3047    3048
CTETRA        44       2     374    2659    2651    2656    3049    3050+
+           3051    3052    3053    3047
CTETRA        45       2     364    2655     375    2656    3054    3040+
+            854    3055    3036    3056
CTETRA        46       2     360     371    2660    2650     842    3057+
+           3058    3059    3060    3061
CTETRA        47       2     362    2658     373    2650    3062    3045+
+            848    3063    3064    3018
CTETRA        48       2    2653    2646    2651    2650    3065    3025+
+           3066    3067    3068    3019
CTETRA        49       2     373    2658    2651    2650    3045    3044+
+           3020    3018    3064    3019
CTETRA        50       2    2651    2650    2646    2648    3019    3068+
+           3025    3023    3022    3009
CTETRA        51       2    2661    2662    2663    2664    3069    3070+
+           3071    3072    3073    3074
CTETRA        52       2    2665    2662    2664    2614    3075    3073+
+           3076    3077    3078    3079
CTETRA        53       2    2666    2667    2668    2669    3080    3081+
+           3082    3083    3084    3085
CTETRA        54       2     281     292     291    2670     619     618+
+            617    3086    3087    3088
CTETRA        55       2    2666    2671    2667    2669    3089    3090+
+           3080    3083    3091    3084
CTETRA        56       2     146     533     534    2606    1383    1300+
+           1384    3092    3093    3094
CTETRA        57       2    2672    2625    2671    2669    3095    3096+
+           3097    3098    3099    3091
CTETRA        58       2    2620    2673    2669    2621    3100    3101+
+           3102    2925    3103    3104
CTETRA        59       2    2674    2675    2620    2669    3105    3106+
+           3107    3108    3109    3102
CTETRA        60       2    2674    2618    2620    2675    3110    2922+
+           3107    3105    3111    3106
CTETRA        61       2     273     284     283    2676     597     596+
+            595    3112    3113    3114
CTETRA        62       2     165     264     263    2677    1464     566+
+           1467    3115    3116    3117
CTETRA        63       2     270     271     281    2678     551     589+
+            588    3118    3119    3120
CTETRA        64       2    2679    2680    2681    2682    3121    3122+
+           3123    3124    3125    3126
CTETRA        65       2     277     278     288    2683     579     610+
+            609    3127    3128    3129
CTETRA        66       2    2684    2685    2686    2687    3130    3131+
+           3132    3133    3134    3135
CTETRA        67       2     264     274    2688    2689     565    3136+
+           3137    3138    3139    3140
CTETRA        68       2    2676    2690    2691    2692    3141    3142+
+           3143    3144    3145    3146
CTETRA        69       2     264    2677     265    2689    3116    3147+
+            570    3138    3148    3149
CTETRA        70       2     165     187     186    2693    2590     199+
+           2589    3150    3151    3152
CTETRA        71       2     265    2677    2691    2689    3147    3153+
+           3154    3149    3148    3155
CTETRA        72       2     274    2676    2688    2689    3156    3157+
+           3136    3139    3158    3140
CTETRA        73       2    2691    2677    2690    2689    3153    3159+
+           3142    3155    3148    3160
CTETRA        74       2      91    2694     445    2695    3161    3162+
+           1365    3163    3164    3165
CTETRA        75       2     445     446    2695    2696    1052    3166+
+           3165    3167    3168    3169
CTETRA        76       2    2695    2697    2698    2696    3170    3171+
+           3172    3169    3173    3174
CTETRA        77       2     457     458    2695    2696    1086    3175+
+           3176    3177    3178    3169
CTETRA        78       2     446     457    2695    2696    1084    3176+
+           3166    3168    3177    3169
CTETRA        79       2    2694    2695    2698    2696    3164    3172+
+           3179    3180    3169    3174
CTETRA        80       2    2694    2698    2695    2699    3179    3172+
+           3164    3181    3182    3183
CTETRA        81       2    2694    2700    2701    2696    3184    3185+
+           3186    3180    3187    3188
CTETRA        82       2     108     268       6    2702    1455    1457+
+            109    3189    3190    3191
CTETRA        83       2     334    2703    2644    2704    3192    3193+
+           3194    3195    3196    3197
CTETRA        84       2    2705    2706    2707    2703    3198    3199+
+           3200    3201    3202    3203
CTETRA        85       2    2708    2706    2705    2703    3204    3198+
+           3205    3206    3202    3201
CTETRA        86       2     334    2707    2703    2704    3207    3203+
+           3192    3195    3208    3196
CTETRA        87       2    2709    2643    2703    2704    3209    3210+
+           3211    3212    3213    3196
CTETRA        88       2    2709    2643    2704    2710    3209    3213+
+           3212    3214    3215    3216
CTETRA        89       2     342    2709    2704    2710    3217    3212+
+           3218    3219    3214    3216
CTETRA        90       2     331    2705     332    2704    3220    3221+
+            732    3222    3223    3224
CTETRA        91       2     467     468    2711    2712    1114    3225+
+           3226    3227    3228    3229
CTETRA        92       2    2644    2643    2703    2642    2998    3210+
+           3193    3002    3001    3230
CTETRA        93       2    2644    2703    2643    2704    3193    3210+
+           2998    3197    3196    3213
CTETRA        94       2    2713    2709    2714    2703    3231    3232+
+           3233    3234    3211    3235
CTETRA        95       2    2708    2709    2703    2704    3236    3211+
+           3206    3237    3212    3196
CTETRA        96       2    2715    2703    2706    2642    3238    3202+
+           3239    3240    3230    3241
CTETRA        97       2     333    2707     334    2704    3242    3207+
+            738    3243    3208    3195
CTETRA        98       2     103    2715     334    2707    3244    3245+
+           1444    3246    3247    3207
CTETRA        99       2     103    2716    2715    2707    3248    3249+
+           3244    3246    3250    3247
CTETRA       100       2    2717    2706    2718    2707    3251    3252+
+           3253    3254    3199    3255
CTETRA       101       2     323    2718    2716    2707    3256    3257+
+           3258    3259    3255    3250
CTETRA       102       2    2708    2703    2705    2704    3206    3201+
+           3205    3237    3196    3223
CTETRA       103       2    2717    2705    2706    2707    3260    3198+
+           3251    3254    3200    3199
CTETRA       104       2    2715    2707    2706    2703    3247    3199+
+           3239    3238    3203    3202
CTETRA       105       2    2714    2643    2641    2642    3261    3262+
+           3263    3264    3001    2996
CTETRA       106       2    2715    2644    2703    2642    3265    3193+
+           3238    3240    3002    3230
CTETRA       107       2     328    2714     338    2640    3266    3267+
+            750    3268    3269    3270
CTETRA       108       2     310     311     321    2717     673     703+
+            702    3271    3272    3273
CTETRA       109       2     327    2719     328    2640    3274    3275+
+            720    3276    3277    3268
CTETRA       110       2     338    2714    2641    2640    3267    3263+
+           3278    3270    3269    2992
CTETRA       111       2     326    2720     327    2640    3279    3280+
+            717    3281    3282    3276
CTETRA       112       2     433    2721    2722    2723    3283    3284+
+           3285    3286    3287    3288
CTETRA       113       2      60      61    1499    2673      67    2134+
+           2135    3289    3290    3291
CTETRA       114       2     429    2724    2725    2723    3292    3293+
+           3294    3295    3296    3297
CTETRA       115       2    2722    2725    2724    2723    3298    3293+
+           3299    3288    3297    3296
CTETRA       116       2      61    1520    1509    2672    2209    1755+
+           2210    3300    3301    3302
CTETRA       117       2    2722    2724    2725    2639    3299    3293+
+           3298    3303    3304    3305
CTETRA       118       2     419    2725     420    2723    3306    3307+
+            980    3308    3297    3309
CTETRA       119       2     420    2725    2721    2723    3307    3310+
+           3311    3309    3297    3287
CTETRA       120       2     430    2726    2724    2723    3312    3313+
+           3314    3315    3316    3296
CTETRA       121       2     287    2684    2683    2680    3317    3318+
+           3319    3320    3321    3322
CTETRA       122       2      60    2672      61    2673    3323    3300+
+             67    3289    3324    3290
CTETRA       123       2      60    1510    2672    2673    2136    3325+
+           3323    3289    3326    3324
CTETRA       124       2    1510    2673    1511    2621    3326    3327+
+           1727    3328    3103    3329
CTETRA       125       2      61    2672    2666    2673    3300    3330+
+           3331    3290    3324    3332
CTETRA       126       2    2666    2727    2728    2673    3333    3334+
+           3335    3332    3336    3337
CTETRA       127       2    1499    2728    1500    2673    3338    3339+
+           1696    3291    3337    3340
CTETRA       128       2     530     531    2611    2729    1293    3341+
+           3342    3343    3344    3345
CTETRA       129       2    2730    2729    2611    2731    3346    3345+
+           3347    3348    3349    3350
CTETRA       130       2     517    2729    2732    2733    3351    3352+
+           3353    3354    3355    3356
CTETRA       131       2     517     528    2732    2729    1285    3357+
+           3353    3351    3358    3352
CTETRA       132       2     528    2730    2732    2729    3359    3360+
+           3357    3358    3346    3352
CTETRA       133       2     517     518    2729    2733    1256    3361+
+           3351    3354    3362    3355
CTETRA       134       2    2679    2734    2735    2686    3363    3364+
+           3365    3366    3367    3368
CTETRA       135       2    2736    2737    2734    2738    3369    3370+
+           3371    3372    3373    3374
CTETRA       136       2     104    2737    2735    2734    3375    3376+
+           3377    3378    3370    3364
CTETRA       137       2     291    2670     292    2734    3088    3087+
+            618    3379    3380    3381
CTETRA       138       2     303    2736    2737    2734    3382    3369+
+           3383    3384    3371    3370
CTETRA       139       2     141      12      13    2739    2569      27+
+           2568    3385    3386    3387
CTETRA       140       2     140    2612    2610    2609    3388    2903+
+           3389    3390    2898    2889
CTETRA       141       2     138    2516    2608    2740    3391    3392+
+           3393    3394    3395    3396
CTETRA       142       2     138    2608    2741    2610    3393    3397+
+           3398    3399    2890    3400
CTETRA       143       2    2612    2731    2611    2605    3401    3350+
+           2902    2901    3402    2897
CTETRA       144       2    2608    2610    2604    2605    2890    3403+
+           3404    2891    2893    2882
CTETRA       145       2     140    2610    2741    2609    3389    3400+
+           3405    3390    2889    3406
CTETRA       146       2    2608    2607    2609    2605    3407    3408+
+           2888    2891    2887    2892
CTETRA       147       2     542    2603     543    2604    2877    3409+
+           1327    2879    2878    3410
CTETRA       148       2    2742    2743    2744    2745    3411    3412+
+           3413    3414    3415    3416
CTETRA       149       2    2746    2728    2666    2744    3417    3335+
+           3418    3419    3420    3421
CTETRA       150       2    2666    2747    2748    2744    3422    3423+
+           3424    3421    3425    3426
CTETRA       151       2    1536    2749    2750    2751    3427    3428+
+           3429    3430    3431    3432
CTETRA       152       2     340     351     350    2752     786     785+
+            784    3433    3434    3435
CTETRA       153       2    2626    2629    2624    2630    2949    2960+
+           2954    2950    2952    3436
CTETRA       154       2    1536    2624    2749    2751    3437    3438+
+           3427    3430    3439    3431
CTETRA       155       2    2306    2307    2753    2754    2436    3440+
+           3441    3442    3443    3444
CTETRA       156       2    2626    2624    2751    2630    2954    3439+
+           3445    2950    3436    3446
CTETRA       157       2     103     323     104    2716    1445    1446+
+            114    3248    3258    3447
CTETRA       158       2     104    2716     323    2718    3447    3258+
+           1446    3448    3257    3256
CTETRA       159       2    2717    2718    2706    2738    3253    3252+
+           3251    3449    3450    3451
CTETRA       160       2     104     312    2735    2718    1447    3452+
+           3377    3448    3453    3454
CTETRA       161       2    2716    2718    2706    2707    3257    3252+
+           3455    3250    3255    3199
CTETRA       162       2     311    2717    2755    2718    3272    3456+
+           3457    3458    3253    3459
CTETRA       163       2    2603    2731    2606    2605    3460    3461+
+           3462    2881    3402    2886
CTETRA       164       2     533    2604    2603    2606    3463    2878+
+           3464    3093    2883    3462
CTETRA       165       2    2603    2606    2604    2605    3462    2883+
+           2878    2881    2886    2882
CTETRA       166       2    2756    2606    2757    2609    3465    3466+
+           3467    3468    2899    3469
CTETRA       167       2    2758    2692    2679    2682    3470    3471+
+           3472    3473    3474    3124
CTETRA       168       2     106    2758    2679    2682    3475    3472+
+           3476    3477    3473    3124
CTETRA       169       2     300     301    2755    2682     645    3478+
+           3479    3480    3481    3482
CTETRA       170       2    2679    2681    2755    2682    3123    3483+
+           3484    3124    3126    3482
CTETRA       171       2    2289    2290    2297    2759    2391    2412+
+           2411    3485    3486    3487
CTETRA       172       2     289    2680    2760    2682    3488    3489+
+           3490    3491    3125    3492
CTETRA       173       2     259    2761    2762    2763    3493    3494+
+           3495    3496    3497    3498
CTETRA       174       2     159    2702    2764    2763    3499    3500+
+           3501    3502    3503    3504
CTETRA       175       2     159    2764     160    2763    3501    3505+
+            181    3502    3504    3506
CTETRA       176       2     160    2764    2765    2763    3505    3507+
+           3508    3506    3504    3509
CTETRA       177       2     231    1482    1481    2766    3510    1671+
+           3511    3512    3513    3514
CTETRA       178       2    2295    2296    2303    2767    2407    2428+
+           2427    3515    3516    3517
CTETRA       179       2     209     231    1481    2766    2238    3511+
+           2227    3518    3512    3514
CTETRA       180       2     231    2742    1482    2766    3519    3520+
+           3510    3512    3521    3513
CTETRA       181       2    1480    1481    2768    2766    1667    3522+
+           3523    3524    3514    3525
CTETRA       182       2     209    1480     230    2766    2230    3526+
+           2236    3518    3524    3527
CTETRA       183       2     231    2769    2742    2766    3528    3529+
+           3519    3512    3530    3521
CTETRA       184       2    1629    1630    2770    2771    2064    3531+
+           3532    3533    3534    3535
CTETRA       185       2    2637    2770    2633    2771    3536    3537+
+           3538    3539    3535    3540
CTETRA       186       2    2299    2307    2306    2754    2437    2436+
+           2435    3541    3443    3442
CTETRA       187       2    1616    1627    2772    2771    2056    3542+
+           3543    3544    3545    3546
CTETRA       188       2    2772    2771    2773    2774    3546    3547+
+           3548    3549    3550    3551
CTETRA       189       2    1616    2771    2772    2774    3544    3546+
+           3543    3552    3550    3549
CTETRA       190       2    1561    1562    2775    2776    1872    3553+
+           3554    3555    3556    3557
CTETRA       191       2    1562    1563    2775    2776    1875    3558+
+           3553    3556    3559    3557
CTETRA       192       2    1560    1561    2775    2776    1869    3554+
+           3560    3561    3555    3557
CTETRA       193       2    2666    2668    2667    2744    3082    3081+
+           3080    3421    3562    3563
CTETRA       194       2    2666    2727    2777    2728    3333    3564+
+           3565    3335    3334    3566
CTETRA       195       2     234    2310    2311    2753    2480    2448+
+           2481    3567    3568    3569
CTETRA       196       2     283    2676    2678    2778    3114    3570+
+           3571    3572    3573    3574
CTETRA       197       2    1491    1502    2777    2668    1703    3575+
+           3576    3577    3578    3579
CTETRA       198       2    2674    2620    2668    2669    3107    3580+
+           3581    3108    3102    3085
CTETRA       199       2    1503    2674    2620    2668    3582    3107+
+           3583    3584    3581    3580
CTETRA       200       2    2779    2780    2781    2782    3585    3586+
+           3587    3588    3589    3590
CTETRA       201       2     182    1652    2613    2664    2182    3591+
+           3592    3593    3594    3595
CTETRA       202       2    2615    2664    2783    2614    3596    3597+
+           3598    3599    3079    3600
CTETRA       203       2     185    2779     186    2781    3601    3602+
+            200    3603    3587    3604
CTETRA       204       2     314     325     324    2720     712     711+
+            710    3605    3606    3607
CTETRA       205       2    1651    2781    2663    2664    3608    3609+
+           3610    3611    3612    3074
CTETRA       206       2    1649    2661    2663    2781    3613    3071+
+           3614    3615    3616    3609
CTETRA       207       2     184     185    2781    2782     201    3603+
+           3617    3618    3619    3590
CTETRA       208       2    2784    2749    2750    2785    3620    3428+
+           3621    3622    3623    3624
CTETRA       209       2    1545    1556    2786    2785    1855    3625+
+           3626    3627    3628    3629
CTETRA       210       2    1544    2784    2750    2785    3630    3621+
+           3631    3632    3622    3624
CTETRA       211       2    2305    2753    2306    2787    3633    3441+
+           2433    3634    3635    3636
CTETRA       212       2      59    1531      60    2631    2206    2207+
+             68    3637    3638    3639
CTETRA       213       2    2769    2787    2788    2789    3640    3641+
+           3642    3643    3644    3645
CTETRA       214       2     231    2308    2788    2787    2475    3646+
+           3647    3648    3649    3641
CTETRA       215       2     231    2788    2769    2787    3647    3642+
+           3528    3648    3641    3640
CTETRA       216       2    2308    2753    2788    2787    3650    3651+
+           3646    3649    3635    3641
CTETRA       217       2     231    2307    2308    2787    2474    2439+
+           2475    3648    3652    3649
CTETRA       218       2    2306    2753    2307    2787    3441    3440+
+           2436    3636    3635    3652
CTETRA       219       2     344     345     355    2710     769     799+
+            798    3653    3654    3655
CTETRA       220       2    1581    2790    1582    2791    3656    3657+
+           1928    3658    3659    3660
CTETRA       221       2    1572    2792    1573    2793    3661    3662+
+           1903    3663    3664    3665
CTETRA       222       2    1584    2794    2791    2793    3666    3667+
+           3668    3669    3670    3671
CTETRA       223       2    1575    2795    1585    2793    3672    3673+
+           1939    3674    3675    3676
CTETRA       224       2     101     345    2644    2796    1441    3677+
+           3678    3679    3680    3681
CTETRA       225       2    2795    2790    2791    2793    3682    3659+
+           3683    3675    3684    3671
CTETRA       226       2     232     233    1484    2797     240    3685+
+           3686    3687    3688    3689
CTETRA       227       2    2743    2789    2798    2745    3690    3691+
+           3692    3415    3693    3694
CTETRA       228       2     233    2743    1485    2797    3695    3696+
+           3697    3688    3698    3699
CTETRA       229       2     232    1484    1483    2797    3686    1679+
+           3700    3687    3689    3701
CTETRA       230       2     274     275    2676    2689     567    3702+
+           3156    3139    3703    3158
CTETRA       231       2     232    2769    2788    2797    3704    3642+
+           3705    3687    3706    3707
CTETRA       232       2    1483    2743    2742    2797    3708    3411+
+           3709    3701    3698    3710
CTETRA       233       2      34    2799    2277    2800    3711    3712+
+           2458    3713    3714    3715
CTETRA       234       2    2743    2797    2789    2745    3698    3716+
+           3690    3415    3717    3693
CTETRA       235       2    2742    2797    2743    2745    3710    3698+
+           3411    3414    3717    3415
CTETRA       236       2     232    2742    2769    2797    3718    3529+
+           3704    3687    3710    3706
CTETRA       237       2     231     232    2742    2769     239    3718+
+           3519    3528    3704    3529
CTETRA       238       2     228    2787     229    2789    3719    3720+
+            238    3721    3644    3722
CTETRA       239       2    2307    2753    2308    2787    3440    3650+
+           2439    3652    3635    3649
CTETRA       240       2     316     327     326    2720     718     717+
+            716    3723    3280    3279
CTETRA       241       2     233    2310    2753    2788    2479    3568+
+           3724    3725    3726    3651
CTETRA       242       2     233    2788    2753    2789    3725    3651+
+           3724    3727    3645    3728
CTETRA       243       2     228    2753    2305    2787    3729    3633+
+           2469    3719    3635    3634
CTETRA       244       2    2753    2788    2787    2789    3651    3641+
+           3635    3728    3645    3644
CTETRA       245       2    2308    2753    2309    2788    3650    3730+
+           2442    3646    3651    3731
CTETRA       246       2    2309    2753    2310    2788    3730    3568+
+           2445    3731    3651    3726
CTETRA       247       2    2691    2690    2801    2802    3142    3732+
+           3733    3734    3735    3736
CTETRA       248       2     278    2760    2683    2802    3737    3738+
+           3128    3739    3740    3741
CTETRA       249       2     278     279    2760    2802     583    3742+
+           3737    3739    3743    3740
CTETRA       250       2    2803    2702    2690    2802    3744    3745+
+           3746    3747    3748    3735
CTETRA       251       2     108    2702    2803    2802    3189    3744+
+           3749    3750    3748    3747
CTETRA       252       2    2803    2683    2760    2802    3751    3738+
+           3752    3747    3741    3740
CTETRA       253       2    1552    2804    1563    2776    3753    3754+
+           1876    3755    3756    3559
CTETRA       254       2    1552    2784    2804    2776    3757    3758+
+           3753    3755    3759    3756
CTETRA       255       2     325    2720     326    2640    3606    3279+
+            714    3760    3282    3281
CTETRA       256       2    1563    2804    2627    2775    3754    3761+
+           2940    3558    3762    3763
CTETRA       257       2    1560    2805    2806    2775    3764    3765+
+           3766    3560    3767    3768
CTETRA       258       2    2804    2786    2807    2775    3769    3770+
+           3771    3762    3772    3773
CTETRA       259       2    2806    2805    2786    2775    3765    3774+
+           3775    3768    3767    3772
CTETRA       260       2    1561    2792    2805    2775    3776    3777+
+           3778    3554    3779    3767
CTETRA       261       2    1563    2804    2775    2776    3754    3762+
+           3558    3559    3756    3557
CTETRA       262       2    1575    2627    2807    2792    3780    3781+
+           3782    3783    3784    3785
CTETRA       263       2    1572    1582    2790    2793    1930    3657+
+           3786    3663    3787    3684
CTETRA       264       2    2805    2790    2808    2792    3788    3789+
+           3790    3777    3791    3792
CTETRA       265       2    2807    2805    2808    2792    3793    3790+
+           3794    3785    3777    3792
CTETRA       266       2    1571    2790    2805    2792    3795    3788+
+           3796    3797    3791    3777
CTETRA       267       2    1561    1562    2792    2775    1872    3798+
+           3776    3554    3553    3779
CTETRA       268       2    1562    2627    2792    2775    3799    3784+
+           3798    3553    3763    3779
CTETRA       269       2    1572    2790    2792    2793    3786    3791+
+           3661    3663    3684    3664
CTETRA       270       2     103    2716     104    2737    3248    3447+
+            114    3800    3801    3375
CTETRA       271       2    2809    2737    2736    2738    3802    3369+
+           3803    3804    3373    3372
CTETRA       272       2    2716    2737    2809    2738    3801    3802+
+           3805    3806    3373    3804
CTETRA       273       2     104    2716    2735    2737    3447    3807+
+           3377    3375    3801    3376
CTETRA       274       2     303    2810    2736    2734    3808    3809+
+           3382    3384    3810    3371
CTETRA       275       2     103     313    2716    2737    1341    3811+
+           3248    3800    3812    3801
CTETRA       276       2     313    2720    2716    2737    3813    3814+
+           3811    3812    3815    3801
CTETRA       277       2     394    2652    2811    2812    3816    3817+
+           3818    3819    3820    3821
CTETRA       278       2    2813    2652    2647    2812    3822    3823+
+           3824    3825    3820    3826
CTETRA       279       2     391    2813    2647    2812    3827    3824+
+           3828    3829    3825    3826
CTETRA       280       2     404    2811    2814    2812    3830    3831+
+           3832    3833    3821    3834
CTETRA       281       2     365    2815     366    2655    3835    3836+
+            828    3837    3838    3839
CTETRA       282       2     402     403    2814    2812     931    3840+
+           3841    3842    3843    3834
CTETRA       283       2     391     402    2816    2812     929    3844+
+           3845    3829    3842    3846
CTETRA       284       2     454    2694    2699    2817    3847    3181+
+           3848    3849    3850    3851
CTETRA       285       2     440     441     451    2700    1039    1069+
+           1068    3852    3853    3854
CTETRA       286       2     441     451    2700    2817    1069    3854+
+           3853    3855    3856    3857
CTETRA       287       2     443    2726    2694    2817    3858    3859+
+           3860    3861    3862    3850
CTETRA       288       2      34    2277    2284    2800    2458    2375+
+           2461    3713    3715    3863
CTETRA       289       2     441    2700    2726    2817    3853    3864+
+           3865    3855    3857    3862
CTETRA       290       2    2264    2818    2265    2819    3866    3867+
+           2317    3868    3869    3870
CTETRA       291       2     424    2722    2820    2639    3871    3872+
+           3873    3874    3303    3875
CTETRA       292       2    2256    2264    2263    2821    2314    2313+
+           2312    3876    3877    3878
CTETRA       293       2     414    2820    2725    2639    3879    3880+
+           3881    3882    3875    3305
CTETRA       294       2     428    2725    2724    2639    3883    3293+
+           3884    3885    3305    3304
CTETRA       295       2     416    2725     417    2639    3886    3887+
+            971    2988    3305    2989
CTETRA       296       2     414    2725     415    2639    3881    3888+
+            965    3882    3305    3889
CTETRA       297       2     415    2725     416    2639    3888    3886+
+            968    3889    3305    2988
CTETRA       298       2    2651    2659    2654    2656    3050    3890+
+           3891    3047    3053    3035
CTETRA       299       2     384    2652    2651    2659    3029    3028+
+           3026    3892    3893    3050
CTETRA       300       2     385    2822    2652    2659    3894    3895+
+           3896    3897    3898    3893
CTETRA       301       2     375    2654     386    2659    3042    3899+
+            885    3900    3890    3901
CTETRA       302       2    2816    2823    2824    2825    3902    3903+
+           3904    3905    3906    3907
CTETRA       303       2     408    2824    2823    2825    3908    3903+
+           3909    3910    3907    3906
CTETRA       304       2     411    2816    2826    2824    3911    3912+
+           3913    3914    3904    3915
CTETRA       305       2     411    2826     422    2824    3913    3916+
+            987    3914    3915    3917
CTETRA       306       2     421     422    2721    2824     986    3918+
+           3919    3920    3917    3921
CTETRA       307       2    2826    2725    2721    2824    3922    3310+
+           3923    3915    3924    3921
CTETRA       308       2      32      33    2269    2827      41    2494+
+           2495    3925    3926    3927
CTETRA       309       2     374     384    2651    2659     880    3026+
+           3051    3049    3892    3050
CTETRA       310       2     386    2654     387    2659    3899    3928+
+            887    3901    3890    3929
CTETRA       311       2     398    2822    2828    2825    3930    3931+
+           3932    3933    3934    3935
CTETRA       312       2     387     398    2822    2828     919    3930+
+           3936    3937    3932    3931
CTETRA       313       2     385     386    2822    2659     884    3938+
+           3894    3897    3901    3898
CTETRA       314       2     396    2811    2822    2825    3939    3940+
+           3941    3942    3943    3934
CTETRA       315       2     395    2811    2652    2822    3944    3817+
+           3945    3946    3940    3895
CTETRA       316       2      36    2297    2759    2767    2487    3487+
+           3947    3948    3949    3950
CTETRA       317       2    2811    2828    2822    2825    3951    3931+
+           3940    3943    3935    3934
CTETRA       318       2    2644    2643    2796    2710    2998    3952+
+           3681    3953    3215    3954
CTETRA       319       2     336    2641    2643    2642    2993    3262+
+           3955    2994    2996    3001
CTETRA       320       2     107    2758    2803    2829    3956    3957+
+           3958    3959    3960    3961
CTETRA       321       2     106    2670    2758    2829    3962    3963+
+           3475    3964    3965    3960
CTETRA       322       2     280     281    2670    2829     587    3086+
+           3966    3967    3968    3965
CTETRA       323       2     269    2762     270    2829    3969    3970+
+            547    3971    3972    3973
CTETRA       324       2    2683    2760    2680    2692    3738    3489+
+           3322    3974    3975    3976
CTETRA       325       2     290    2760    2758    2682    3977    3978+
+           3979    3980    3492    3473
CTETRA       326       2    2803    2760    2683    2692    3752    3738+
+           3751    3981    3975    3974
CTETRA       327       2     107    2803    2758    2760    3958    3957+
+           3956    3982    3752    3978
CTETRA       328       2    2803    2691    2683    2802    3983    3984+
+           3751    3747    3734    3741
CTETRA       329       2     279    2803    2760    2802    3985    3752+
+           3742    3743    3747    3740
CTETRA       330       2    1639    2770    2663    2830    3986    3987+
+           3988    3989    3990    3991
CTETRA       331       2    1630    2633    2632    2770    3992    2965+
+           3993    3531    3537    3994
CTETRA       332       2    1628    2637    2770    2830    3995    3536+
+           3996    3997    3998    3990
CTETRA       333       2    2632    2663    2770    2830    3999    3987+
+           3994    4000    3991    3990
CTETRA       334       2    1628    2770    1639    2830    3996    3986+
+           2090    3997    3990    3989
CTETRA       335       2    2803    2678    2829    2692    4001    4002+
+           3961    3981    4003    4004
CTETRA       336       2    2679    2657    2810    2831    4005    4006+
+           4007    4008    4009    4010
CTETRA       337       2     353     364     363    2832     823     822+
+            821    4011    4012    4013
CTETRA       338       2    2679    2670    2657    2692    4014    4015+
+           4005    3471    4016    4017
CTETRA       339       2     106    2679    2758    2670    3476    3472+
+           3475    3962    4014    3963
CTETRA       340       2      63       4     205       3      64     216+
+           2128    4018    2243    2242
CTETRA       341       2     105    2679     106    2670    4019    3476+
+            112    4020    4014    3962
CTETRA       342       2     105    2679    2670    2734    4019    4014+
+           4020    4021    3363    3380
CTETRA       343       2    2833    2700    2726    2834    4022    3864+
+           4023    4024    4025    4026
CTETRA       344       2    2833    2726    2724    2834    4023    3313+
+           4027    4024    4026    4028
CTETRA       345       2     427    2724     438    2834    4029    4030+
+           1031    4031    4028    4032
CTETRA       346       2     501    2835     502    2836    4033    4034+
+           1210    4035    4036    4037
CTETRA       347       2     435     436    2701    2834    1024    4038+
+           4039    4040    4041    4042
CTETRA       348       2     438    2724    2700    2834    4030    4043+
+           4044    4032    4028    4025
CTETRA       349       2     427    2724    2834    2639    4029    4028+
+           4031    2990    3304    4045
CTETRA       350       2     425     426    2834    2639     996    4046+
+           4047    4048    4049    4045
CTETRA       351       2    1558    2805    2808    2786    4050    3790+
+           4051    4052    3774    4053
CTETRA       352       2    2807    2808    2805    2786    3794    3790+
+           3793    3770    4053    3774
CTETRA       353       2    1556    2808    2837    2786    4054    4055+
+           4056    3625    4053    4057
CTETRA       354       2    1556    1557    2808    2786    1857    4058+
+           4054    3625    4059    4053
CTETRA       355       2     258    2762    2702    2763    4060    4061+
+           4062    4063    3498    3503
CTETRA       356       2     185     186    1649    2781     200    2175+
+           2176    3603    3604    3615
CTETRA       357       2    2657    2670    2829    2692    4015    3965+
+           4064    4017    4016    4004
CTETRA       358       2    2803    2678    2762    2829    4001    4065+
+           4066    3961    4002    3972
CTETRA       359       2    2803    2678    2761    2762    4001    4067+
+           4068    4066    4065    3494
CTETRA       360       2     108    2803    2702    2762    3749    3744+
+           3189    4069    4066    4061
CTETRA       361       2     107    2803     108    2762    3958    3749+
+            110    4070    4066    4069
CTETRA       362       2     107    2803    2762    2829    3958    4066+
+           4070    3959    3961    3972
CTETRA       363       2    2838    2736    2686    2738    4071    4072+
+           4073    4074    3372    4075
CTETRA       364       2    2838    2839    2840    2738    4076    4077+
+           4078    4074    4079    4080
CTETRA       365       2    2838    2840    2809    2738    4078    4081+
+           4082    4074    4080    3804
CTETRA       366       2    2840    2706    2809    2738    4083    4084+
+           4081    4080    3451    3804
CTETRA       367       2    2838    2686    2717    2738    4073    4085+
+           4086    4074    4075    3449
CTETRA       368       2     294     305    2810    2831     656    4087+
+           4088    4089    4090    4010
CTETRA       369       2    2679    2684    2680    2692    4091    3321+
+           3121    3471    4092    3976
CTETRA       370       2     283    2657    2684    2831    4093    4094+
+           4095    4096    4009    4097
CTETRA       371       2    2679    2684    2686    2687    4091    3132+
+           3366    4098    3133    3135
CTETRA       372       2    2679    2657    2684    2692    4005    4094+
+           4091    3471    4017    4092
CTETRA       373       2    2679    2810    2686    2831    4007    4099+
+           3366    4008    4010    4100
CTETRA       374       2     353     364    2832    2815     823    4012+
+           4011    4101    4102    4103
CTETRA       375       2     356    2796    2815    2710    4104    4105+
+           4106    4107    3954    4108
CTETRA       376       2     345    2796     356    2710    3680    4104+
+            801    3654    3954    4107
CTETRA       377       2    2832    2709    2815    2643    4109    4110+
+           4103    4111    3209    4112
CTETRA       378       2    2832    2643    2815    2841    4111    4112+
+           4103    4113    4114    4115
CTETRA       379       2     354     355    2815    2710     797    4116+
+           4117    4118    3655    4108
CTETRA       380       2    2644    2704    2643    2710    3197    3213+
+           2998    3953    3216    3215
CTETRA       381       2    2796    2815    2643    2841    4105    4112+
+           3952    4119    4115    4114
CTETRA       382       2     429     440     439    2724    1037    1036+
+           1035    3292    4120    4121
CTETRA       383       2     166    2801    2693    2782    4122    4123+
+           4124    4125    4126    4127
CTETRA       384       2    2693    2801    2842    2782    4123    4128+
+           4129    4127    4126    4130
CTETRA       385       2     166    2693     185    2782    4124    4131+
+           2587    4125    4127    3619
CTETRA       386       2     185    2693    2779    2782    4131    4132+
+           3601    3619    4127    3588
CTETRA       387       2    1652    2843    2613    2664    4133    4134+
+           3591    3594    4135    3595
CTETRA       388       2    2665    2662    2661    2664    3075    3069+
+           4136    3076    3073    3072
CTETRA       389       2    2844    2665    2661    2664    4137    4136+
+           4138    4139    3076    3072
CTETRA       390       2    2613    2616    2783    2614    2918    4140+
+           4141    2907    2919    3600
CTETRA       391       2    2665    2615    2617    2614    4142    2913+
+           4143    3077    3599    4144
CTETRA       392       2    2844    2615    2665    2664    4145    4142+
+           4137    4139    3596    3076
CTETRA       393       2    2779    2780    2842    2783    3585    4146+
+           4147    4148    4149    4150
CTETRA       394       2     506    2845    2846    2733    4151    4152+
+           4153    4154    4155    4156
CTETRA       395       2     506     517    2845    2733    1254    4157+
+           4151    4154    3354    4155
CTETRA       396       2     509    2846    2847    2733    4158    4159+
+           4160    4161    4156    4162
CTETRA       397       2     506    2846     507    2733    4153    4163+
+           1225    4154    4156    4164
CTETRA       398       2     517    2732    2845    2733    3353    4165+
+           4157    3354    3356    4155
CTETRA       399       2    2746    2768    2744    2745    4166    4167+
+           3419    4168    4169    3416
CTETRA       400       2    2848    2668    2768    2744    4170    4171+
+           4172    4173    3562    4167
CTETRA       401       2    2849    2798    2789    2745    4174    3691+
+           4175    4176    3694    3693
CTETRA       402       2    2746    2743    2798    2745    4177    3692+
+           4178    4168    3415    3694
CTETRA       403       2    2769    2850    2789    2745    4179    4180+
+           3643    4181    4182    3693
CTETRA       404       2     229    2850    2769    2766    4183    4179+
+           4184    4185    4186    3530
CTETRA       405       2    2742    2768    2766    2745    4187    3525+
+           3521    3414    4169    4188
CTETRA       406       2    2849    2850    2768    2745    4189    4190+
+           4191    4176    4182    4169
CTETRA       407       2    1615    2772    2851    2774    4192    4193+
+           4194    4195    3549    4196
CTETRA       408       2    2772    2773    2851    2774    3548    4197+
+           4193    3549    3551    4196
CTETRA       409       2    2772    2851    2773    2852    4193    4197+
+           3548    4198    4199    4200
CTETRA       410       2    1604    1605    1615    2851    1993    2023+
+           2022    4201    4202    4194
CTETRA       411       2    1605    1615    2851    2774    2023    4194+
+           4202    4203    4195    4196
CTETRA       412       2    1607    2773    1618    2774    4204    4205+
+           2031    4206    3551    4207
CTETRA       413       2    1607    2851    2773    2774    4208    4197+
+           4204    4206    4196    3551
CTETRA       414       2    1605    2851    1606    2774    4202    4209+
+           1996    4203    4196    4210
CTETRA       415       2    1646    2665    2615    2617    4211    4142+
+           4212    4213    4143    2913
CTETRA       416       2     189    2615     190    2617    4214    2909+
+            196    4215    2913    2912
CTETRA       417       2    2615    2783    2616    2614    3598    4140+
+           2910    3599    3600    2919
CTETRA       418       2    1642    2613    2843    2614    2905    4134+
+           4216    2908    2907    4217
CTETRA       419       2    2665    2664    2615    2614    3076    3596+
+           4142    3077    3079    3599
CTETRA       420       2    2615    2616    2617    2614    2910    2914+
+           2913    3599    2919    4144
CTETRA       421       2    1643    2635    2617    2614    4218    4219+
+           4220    4221    4222    4144
CTETRA       422       2    1644    2635    1645    2617    4223    4224+
+           2105    4225    4219    4226
CTETRA       423       2      59    1510    1521    2631    2137    1756+
+           2138    3637    4227    4228
CTETRA       424       2     140     141    2612    2739     153    4229+
+           3388    4230    3385    4231
CTETRA       425       2     535    2606    2853    2757    4232    4233+
+           4234    4235    3466    4236
CTETRA       426       2    2854    2853    2606    2731    4237    4233+
+           4238    4239    4240    3461
CTETRA       427       2    2730    2732    2729    2731    3360    3352+
+           3346    3348    4241    3349
CTETRA       428       2    2730    2855    2732    2731    4242    4243+
+           3360    3348    4244    4241
CTETRA       429       2    2730    2853    2855    2731    4245    4246+
+           4242    3348    4240    4244
CTETRA       430       2     404     405     415    2823     937     967+
+            966    4247    4248    4249
CTETRA       431       2    1538    2628    2749    2630    4250    4251+
+           4252    4253    2951    4254
CTETRA       432       2    1537    2624    1538    2749    4255    4256+
+           1804    4257    3438    4252
CTETRA       433       2     398     399     409    2825     921     951+
+            950    3933    4258    4259
CTETRA       434       2    2626    2749    2628    2630    4260    4251+
+           2947    2950    4254    2951
CTETRA       435       2    2626    2749    2784    2628    4260    3620+
+           4261    2947    4251    4262
CTETRA       436       2    1643    2635    1644    2617    4218    4223+
+           2102    4220    4219    4225
CTETRA       437       2    2624    2625    2629    2623    2932    2956+
+           2960    2934    2933    2959
CTETRA       438       2    1531    1542    1541    2626    1817    1816+
+           1815    4263    4264    4265
CTETRA       439       2    2626    2622    2750    2751    2937    4266+
+           4267    3445    4268    3432
CTETRA       440       2    1535    2750    2622    2751    4269    4266+
+           4270    4271    3432    4268
CTETRA       441       2    2626    2624    2622    2751    2954    2953+
+           2937    3445    3439    4268
CTETRA       442       2    1636    2856    2637    2830    4272    4273+
+           4274    4275    4276    3998
CTETRA       443       2    1637    2661    2856    2830    4277    4278+
+           4279    4280    4281    4276
CTETRA       444       2    1626    2637    1627    2830    4282    4283+
+           2055    4284    3998    4285
CTETRA       445       2    2637    2662    2632    2830    4286    4287+
+           4288    3998    4289    4000
CTETRA       446       2    1639    1640    2663    2770    2092    4290+
+           3988    3986    4291    3987
CTETRA       447       2    1638    2663    2661    2830    4292    3071+
+           4293    4294    3991    4281
CTETRA       448       2    2661    2663    2662    2830    3071    3070+
+           3069    4281    3991    4289
CTETRA       449       2    1627    2637    1628    2830    4283    3995+
+           2058    4285    3998    3997
CTETRA       450       2    2736    2734    2686    2738    3371    3367+
+           4072    3372    3374    4075
CTETRA       451       2    2838    2717    2839    2738    4086    4295+
+           4076    4074    3449    4079
CTETRA       452       2     295    2685     305    2831    4296    4297+
+            657    4298    4299    4090
CTETRA       453       2    2679    2735    2755    2686    3365    4300+
+           3484    3366    3368    4301
CTETRA       454       2    2685    2681    2686    2687    4302    4303+
+           3131    3134    4304    3135
CTETRA       455       2    2735    2718    2755    2686    3454    3459+
+           4300    3368    4305    4301
CTETRA       456       2    2839    2717    2706    2738    4295    3251+
+           4306    4079    3449    3451
CTETRA       457       2    2838    2809    2736    2738    4082    3803+
+           4071    4074    3804    3372
CTETRA       458       2    2685    2686    2810    2831    3131    4099+
+           4307    4299    4100    4010
CTETRA       459       2    2735    2734    2737    2738    3364    3370+
+           3376    4308    3374    3373
CTETRA       460       2    2676    2690    2761    2778    3141    4309+
+           4310    3573    4311    4312
CTETRA       461       2     263    2688     274    2778    4313    3136+
+            564    4314    4315    4316
CTETRA       462       2     263    2857    2688    2778    4317    4318+
+           4313    4314    4319    4315
CTETRA       463       2     261    2761    2857    2778    4320    4321+
+           4322    4323    4312    4319
CTETRA       464       2     274    2688    2676    2778    3136    3157+
+           3156    4316    4315    3573
CTETRA       465       2    2761    2690    2857    2778    4309    4324+
+           4321    4312    4311    4319
CTETRA       466       2     398    2828     399    2825    3932    4325+
+            921    3933    3935    4258
CTETRA       467       2     399    2828    2816    2825    4325    4326+
+           4327    4258    3935    3905
CTETRA       468       2     410    2816    2824    2825    4328    3904+
+           4329    4330    3905    3907
CTETRA       469       2     407    2823    2811    2825    4331    4332+
+           4333    4334    3906    3943
CTETRA       470       2     420    2721    2725    2824    3311    3310+
+           3307    4335    3921    3924
CTETRA       471       2    2715    2706    2720    2642    3239    4336+
+           4337    3240    3241    4338
CTETRA       472       2    2716    2706    2715    2707    3455    3239+
+           3249    3250    3199    3247
CTETRA       473       2    2839    2717    2705    2706    4295    3260+
+           4339    4306    3251    3198
CTETRA       474       2     322    2717    2718    2707    4340    3253+
+           4341    4342    3254    3255
CTETRA       475       2     333    2705    2707    2704    4343    3200+
+           3242    3243    3223    3208
CTETRA       476       2    2716    2720    2715    2706    3814    4337+
+           3249    3455    4336    3239
CTETRA       477       2     141     538    2612    2757    1393    4344+
+           4229    4345    4346    4347
CTETRA       478       2     395     406     405    2811     941     940+
+            939    3944    4348    4349
CTETRA       479       2    2608    2607    2756    2609    3407    4350+
+           4351    2888    3408    3468
CTETRA       480       2     146    2607    2604    2606    4352    2885+
+           4353    3092    2884    2883
CTETRA       481       2    2608    2756    2739    2609    4351    4354+
+           4355    2888    3468    4356
CTETRA       482       2     141    2612    2739    2757    4229    4231+
+           3385    4345    4347    4357
CTETRA       483       2     536    2853     537    2757    4358    4359+
+           1309    4360    4236    4361
CTETRA       484       2     143    2756     144    2757    4362    4363+
+            150    4364    3467    4365
CTETRA       485       2    2746    2768    2849    2728    4166    4191+
+           4366    3417    4367    4368
CTETRA       486       2      62    2666    2746    2728    4369    3418+
+           4370    4371    3335    3417
CTETRA       487       2    2666    2777    2727    2668    3565    3564+
+           3333    3082    3579    4372
CTETRA       488       2      61    2666    2728    2673    3331    3335+
+           4373    3290    3332    3337
CTETRA       489       2    1489    2768    2777    2728    4374    4375+
+           4376    4377    4367    3566
CTETRA       490       2      62    2746    2849    2728    4370    4366+
+           4378    4371    3417    4368
CTETRA       491       2    2858    2660    2653    2841    4379    4380+
+           4381    4382    4383    4384
CTETRA       492       2    2653    2658    2655    2841    4385    4386+
+           3033    4384    4387    4388
CTETRA       493       2     335    2796    2644    2643    4389    3681+
+           2999    2997    3952    2998
CTETRA       494       2    2658    2660    2859    2841    4390    4391+
+           4392    4387    4383    4393
CTETRA       495       2     347    2859    2643    2641    4394    4395+
+           4396    4397    4398    3262
CTETRA       496       2    2858    2655    2815    2841    4399    3838+
+           4400    4382    4388    4115
CTETRA       497       2    2752    2709    2832    2643    4401    4109+
+           4402    4403    3209    4111
CTETRA       498       2    2796    2643    2859    2841    3952    4395+
+           4404    4119    4114    4393
CTETRA       499       2    2709    2815    2643    2710    4110    4112+
+           3209    3214    4108    3215
CTETRA       500       2     273    2676     283    2778    3112    3114+
+            595    4405    3573    3572
CTETRA       501       2     162    2860     163    2857    4406    4407+
+            178    4408    4409    4410
CTETRA       502       2     263    2861    2688    2857    4411    4412+
+           4313    4317    4413    4318
CTETRA       503       2    2688    2857    2690    2778    4318    4324+
+           4414    4315    4319    4311
CTETRA       504       2     162    2765    2860    2857    4415    4416+
+           4406    4408    4417    4409
CTETRA       505       2    2688    2861    2690    2857    4412    4418+
+           4414    4318    4413    4324
CTETRA       506       2    1590    2791    2794    2862    4419    3667+
+           4420    4421    4422    4423
CTETRA       507       2    1579    2791    1590    2862    4424    4419+
+           1951    4425    4422    4421
CTETRA       508       2    1576    1587    2794    2862    1942    4426+
+           4427    4428    4429    4423
CTETRA       509       2    2795    2791    2863    2862    3683    4430+
+           4431    4432    4422    4433
CTETRA       510       2    1579    2863    2791    2862    4434    4430+
+           4424    4425    4433    4422
CTETRA       511       2    1588    1589    2794    2862    1947    4435+
+           4436    4437    4438    4423
CTETRA       512       2    1587    1588    2794    2862    1944    4436+
+           4426    4429    4437    4423
CTETRA       513       2    2702    2690    2801    2842    3745    3732+
+           4439    4440    4441    4128
CTETRA       514       2    2861    2677    2690    2842    4442    3159+
+           4418    4443    4444    4441
CTETRA       515       2    2861    2765    2860    2842    4445    4416+
+           4446    4443    4447    4448
CTETRA       516       2    2615    2842    2765    2783    4449    4447+
+           4450    3598    4150    4451
CTETRA       517       2     169    2801    2780    2842    4452    4453+
+           4454    4455    4128    4146
CTETRA       518       2    2693    2842    2779    2782    4129    4147+
+           4132    4127    4130    3588
CTETRA       519       2    2861    2693    2677    2842    4456    4457+
+           4442    4443    4129    4444
CTETRA       520       2    2758    2760    2692    2682    3978    3975+
+           3470    3473    3492    3474
CTETRA       521       2    2803    2691    2690    2692    3983    3142+
+           3746    3981    3146    3145
CTETRA       522       2    2676    2691    2690    2689    3143    3142+
+           3141    3158    3155    3160
CTETRA       523       2    2684    2657    2678    2692    4094    4458+
+           4459    4092    4017    4003
CTETRA       524       2    2676    2761    2690    2692    4310    4309+
+           3141    3144    4460    3145
CTETRA       525       2    2803    2690    2761    2692    3746    4309+
+           4068    3981    3145    4460
CTETRA       526       2     233    2743    2797    2789    3695    3698+
+           3688    3727    3690    3716
CTETRA       527       2     229    2769    2850    2789    4184    4179+
+           4183    3722    3643    4180
CTETRA       528       2    2769    2788    2797    2789    3642    3707+
+           3706    3643    3645    3716
CTETRA       529       2     228    2850    2849    2789    4461    4189+
+           4462    3721    4180    4175
CTETRA       530       2    2769    2789    2797    2745    3643    3716+
+           3706    4181    3693    3717
CTETRA       531       2     229    2787    2769    2789    3720    3640+
+           4184    3722    3644    3643
CTETRA       532       2    1530    2626    1541    2629    4463    4265+
+           1814    2955    2949    4464
CTETRA       533       2    1520    1531    1530    2631    1786    1785+
+           1784    4465    3638    4466
CTETRA       534       2    1519    2631    1530    2625    4467    4466+
+           1783    4468    2962    2957
CTETRA       535       2    1529    1530    2629    2625    1782    2955+
+           4469    4470    2957    2956
CTETRA       536       2    1518    2675    2671    2625    4471    4472+
+           4473    4474    4475    3096
CTETRA       537       2      63       3     228    2849    4018     237+
+           4476    4477    4478    4462
CTETRA       538       2    1519    2672    1520    2631    4479    3301+
+           1754    4467    4480    4465
CTETRA       539       2    2672    2631    2625    2621    4480    2962+
+           3095    4481    2963    2936
CTETRA       540       2    2675    2671    2625    2669    4472    3096+
+           4475    3109    3091    3099
CTETRA       541       2    2613    2664    2843    2614    3595    4135+
+           4134    2907    3079    4217
CTETRA       542       2    2856    2661    2665    2662    4278    4136+
+           4482    4483    3069    3075
CTETRA       543       2     425     426     436    2834     996    1026+
+           1025    4047    4046    4041
CTETRA       544       2    2856    2636    2637    2662    4484    2978+
+           4273    4483    4485    4286
CTETRA       545       2    2632    2636    2635    2662    2972    2971+
+           2970    4287    4485    4486
CTETRA       546       2      37      38    2304    2754      46    2484+
+           2485    4487    4488    4489
CTETRA       547       2    2632    2662    2663    2830    4287    3070+
+           3999    4000    4289    3991
CTETRA       548       2    2843    2663    2662    2664    4490    3070+
+           4491    4135    3074    3073
CTETRA       549       2    2637    2636    2632    2662    2978    2972+
+           4288    4286    4485    4287
CTETRA       550       2     206     228     229    1478    2245     238+
+           2246    2233    4492    4493
CTETRA       551       2    1634    2665    2635    2636    4494    4495+
+           4496    4497    4498    2971
CTETRA       552       2    1632    1633    2635    2634    2071    4499+
+           4500    4501    2987    2973
CTETRA       553       2    2637    2632    2636    2634    4288    2972+
+           2978    2981    2968    2974
CTETRA       554       2    1624    2637    1625    2636    4502    4503+
+           2049    4504    2978    4505
CTETRA       555       2    1624    2638    2637    2636    4506    2980+
+           4502    4504    2979    2978
CTETRA       556       2    1624    2772    2637    2638    4507    4508+
+           4502    4506    4509    2980
CTETRA       557       2     441     452     451    2817    1071    1070+
+           1069    3855    4510    3856
CTETRA       558       2    1613    2852    2772    2638    4511    4198+
+           4512    4513    4514    4509
CTETRA       559       2    1610    2633    2852    2638    4515    4516+
+           4517    4518    4519    4514
CTETRA       560       2    1611    2852    1612    2638    4520    4521+
+           2012    4522    4514    4523
CTETRA       561       2    2675    2667    2671    2669    4524    3090+
+           4472    3109    3084    3091
CTETRA       562       2    2666    2668    2727    2669    3082    4372+
+           3333    3083    3085    4525
CTETRA       563       2    2666    2671    2747    2667    3089    4526+
+           3422    3080    3090    4527
CTETRA       564       2    2666    2747    2671    2748    3422    4526+
+           3089    3424    3423    4528
CTETRA       565       2    1491    2777    2768    2668    3576    4375+
+           4529    3577    3579    4171
CTETRA       566       2    2666    2777    2668    2744    3565    3579+
+           3082    3421    4530    3562
CTETRA       567       2    2666    2667    2747    2744    3080    4527+
+           3422    3421    3563    3425
CTETRA       568       2    1524    2618    2624    2619    4531    4532+
+           4533    4534    2920    4535
CTETRA       569       2    2624    2623    2622    2621    2934    2927+
+           2953    2935    2931    2930
CTETRA       570       2    2289    2297    2296    2759    2411    2410+
+           2409    3485    3487    4536
CTETRA       571       2    1511    2620    2619    2621    4537    2921+
+           4538    3329    2925    2924
CTETRA       572       2    1511    1512    2620    2727    1730    4539+
+           4537    4540    4541    4542
CTETRA       573       2    1513    2620    1514    2619    4543    4544+
+           1736    4545    2921    4546
CTETRA       574       2    1522    1523    2622    2619    1761    4547+
+           2945    2943    4548    2944
CTETRA       575       2    1512    2620    1513    2619    4539    4543+
+           1733    4549    2921    4545
CTETRA       576       2    1480    2768    2850    2766    3523    4190+
+           4550    3524    3525    4186
CTETRA       577       2     207    1478     229    1479    2234    4493+
+           2241    2231    1659    4551
CTETRA       578       2     206     229     207    1478    2246    2241+
+            226    2233    4493    2234
CTETRA       579       2     229    1480    1479    2850    4552    1663+
+           4551    4183    4550    4553
CTETRA       580       2     228    1478    2849    2850    4492    4554+
+           4462    4461    4555    4189
CTETRA       581       2    2769    2766    2850    2745    3530    4186+
+           4179    4181    4188    4182
CTETRA       582       2     472     473    2864    2865    1129    4556+
+           4557    4558    4559    4560
CTETRA       583       2      91     434     445    2694    1364    1050+
+           1365    3161    4561    3162
CTETRA       584       2    1497    2743    2798    2748    4562    3692+
+           4563    4564    4565    4566
CTETRA       585       2    1509    2666    2671    2748    4567    3089+
+           4568    4569    3424    4528
CTETRA       586       2    1594    1595    1605    2866    1965    1995+
+           1994    4570    4571    4572
CTETRA       587       2    2746    2748    2743    2744    4573    4565+
+           4177    3419    3426    3412
CTETRA       588       2    1498    2798    2746    2748    4574    4178+
+           4575    4576    4566    4573
CTETRA       589       2      62    2746    2666    2748    4370    3418+
+           4369    4577    4573    3424
CTETRA       590       2    1613    2772    1624    2638    4512    4507+
+           2047    4513    4509    4506
CTETRA       591       2    1599    1610    2773    2852    2007    4578+
+           4579    4580    4517    4200
CTETRA       592       2    1599    2773    2851    2852    4579    4197+
+           4581    4580    4200    4199
CTETRA       593       2    1600    2851    1601    2852    4582    4583+
+           1981    4584    4199    4585
CTETRA       594       2    1601    2851    1602    2852    4583    4586+
+           1984    4585    4199    4587
CTETRA       595       2    1602    2851    1613    2852    4586    4588+
+           2016    4587    4199    4511
CTETRA       596       2    1613    2851    2772    2852    4588    4193+
+           4512    4511    4199    4198
CTETRA       597       2    1618    1629    1628    2771    2062    2061+
+           2060    4589    3533    4590
CTETRA       598       2     505     506    2845    2867    1222    4151+
+           4591    4592    4593    4594
CTETRA       599       2     484    2864     485    2868    4595    4596+
+           1163    4597    4598    4599
CTETRA       600       2     509     510    2847    2835    1234    4600+
+           4160    4601    4602    4603
CTETRA       601       2    2845    2847    2846    2733    4604    4159+
+           4152    4155    4162    4156
CTETRA       602       2     520    2847    2869    2729    4605    4606+
+           4607    4608    4609    4610
CTETRA       603       2     496    2867     497    2846    4611    4612+
+           1197    4613    4614    4615
CTETRA       604       2     498    2867    2835    2846    4616    4617+
+           4618    4619    4614    4620
CTETRA       605       2     498    2835     509    2846    4618    4601+
+           1232    4619    4620    4158
CTETRA       606       2      88     467     478    2711    1370    1143+
+           1371    4621    3226    4622
CTETRA       607       2    1566    2808    1567    2863    4623    4624+
+           1885    4625    4626    4627
CTETRA       608       2    1566    2807    2837    2808    4628    4629+
+           4630    4623    3794    4055
CTETRA       609       2    2807    2837    2808    2786    4629    4055+
+           3794    3770    4057    4053
CTETRA       610       2    2807    2786    2805    2775    3770    3774+
+           3793    3773    3772    3767
CTETRA       611       2    1555    2837    2804    2786    4631    4632+
+           4633    4634    4057    3769
CTETRA       612       2    1547    2806    1558    2785    4635    4636+
+           1861    4637    4638    4639
CTETRA       613       2    1558    2806    2805    2786    4636    3765+
+           4050    4052    3775    3774
CTETRA       614       2    2804    2786    2806    2785    3769    3775+
+           4640    4641    3629    4638
CTETRA       615       2    1556    1557    2786    2785    1857    4059+
+           3625    3628    4642    3629
CTETRA       616       2    2752    2714    2643    2641    4643    3261+
+           4403    4644    3263    3262
CTETRA       617       2     248     249    2262    2870     252    2498+
+           2501    4645    4646    4647
CTETRA       618       2     350    2752    2832    2641    3435    4402+
+           4648    4649    4644    4650
CTETRA       619       2    2832    2643    2859    2641    4111    4395+
+           4651    4650    3262    4398
CTETRA       620       2     191     192    1643    2614     194    2163+
+           2164    4652    2906    4221
CTETRA       621       2      38    2305     228    2753    2466    2469+
+           2468    4653    3633    3729
CTETRA       622       2     347     348    2859    2641     776    4654+
+           4394    4397    4655    4398
CTETRA       623       2     338    2714     339    2641    3267    4656+
+            751    3278    3263    4657
CTETRA       624       2     337     338    2641    2640     748    3278+
+           4658    4659    3270    2992
CTETRA       625       2      38     228       3    2753    2468     237+
+             47    4653    3729    4660
CTETRA       626       2     537    2853     538    2757    4359    4661+
+           1312    4361    4236    4346
CTETRA       627       2     146    2604     533    2606    4353    3463+
+           1383    3092    2883    3093
CTETRA       628       2     144    2756    2606    2757    4363    3465+
+           4662    4365    3467    3466
CTETRA       629       2    2854    2855    2853    2731    4663    4246+
+           4237    4239    4244    4240
CTETRA       630       2     538    2730    2612    2853    4664    4665+
+           4344    4661    4245    4666
CTETRA       631       2     526    2855    2730    2853    4667    4242+
+           4668    4669    4246    4245
CTETRA       632       2     527    2730     538    2853    4670    4664+
+           1313    4671    4245    4661
CTETRA       633       2     526    2730     527    2853    4668    4670+
+           1281    4669    4245    4671
CTETRA       634       2    2869    2855    2854    2731    4672    4663+
+           4673    4674    4244    4239
CTETRA       635       2     523     524    2854    2855    1272    4675+
+           4676    4677    4678    4663
CTETRA       636       2     515    2732     526    2855    4679    4680+
+           1279    4681    4243    4667
CTETRA       637       2     514    2845     515    2855    4682    4683+
+           1247    4684    4685    4681
CTETRA       638       2     513    2847     514    2855    4686    4687+
+           1244    4688    4689    4684
CTETRA       639       2      91     455    2694    2695    1421    4690+
+           3161    3163    4691    3164
CTETRA       640       2    1634    1645    1644    2635    2106    2105+
+           2104    4496    4224    4223
CTETRA       641       2     463    2865    2698    2699    4692    4693+
+           4694    4695    4696    3182
CTETRA       642       2     452     463    2698    2699    1102    4694+
+           4697    4698    4695    3182
CTETRA       643       2     455    2695     465    2699    4691    4699+
+           1109    4700    3183    4701
CTETRA       644       2     455     466     465    2695    1111    1110+
+           1109    4691    4702    4699
CTETRA       645       2    2695    2698    2865    2699    3172    4693+
+           4703    3183    3182    4696
CTETRA       646       2     466    2712     477    2649    4704    4705+
+           1142    3015    4706    3016
CTETRA       647       2     387    2822    2659    2828    3936    3898+
+           3929    3937    3931    4707
CTETRA       648       2     384     385     395    2652     881     911+
+            910    3029    3896    3945
CTETRA       649       2     396    2822     397    2825    3941    4708+
+            915    3942    3934    4709
CTETRA       650       2     399    2816     410    2825    4327    4328+
+            953    4258    3905    4330
CTETRA       651       2    2816    2828    2811    2825    4326    3951+
+           4710    3905    3935    3943
CTETRA       652       2     387    2654     388    2828    3928    4711+
+            890    3937    4712    4713
CTETRA       653       2     389    2813     400    2828    4714    4715+
+            925    4716    4717    4718
CTETRA       654       2     400    2813    2816    2828    4715    4719+
+           4720    4718    4717    4326
CTETRA       655       2     389    2645    2813    2828    4721    4722+
+           4714    4716    4723    4717
CTETRA       656       2     300    2681    2680    2682    4724    3122+
+           4725    3480    3126    3125
CTETRA       657       2     301    2679    2755    2682    4726    3484+
+           3478    3481    3124    3482
CTETRA       658       2     104     312     105    2735    1447    1448+
+            113    3377    3452    4727
CTETRA       659       2     105    2735     312    2755    4727    3452+
+           1448    4728    4300    4729
CTETRA       660       2     105    2679    2735    2755    4019    3365+
+           4727    4728    3484    4300
CTETRA       661       2     312    2755    2735    2718    4729    4300+
+           3452    3453    3459    3454
CTETRA       662       2    2681    2755    2717    2686    3483    3456+
+           4730    4303    4301    4085
CTETRA       663       2    2816    2814    2811    2812    4731    3831+
+           4710    3846    3834    3821
CTETRA       664       2     404    2811    2823    2814    3830    4332+
+           4247    3832    3831    4732
CTETRA       665       2    2826    2814    2725    2824    4733    4734+
+           3922    3915    4735    3924
CTETRA       666       2     414    2826    2725    2820    4736    3922+
+           3881    3879    4737    3880
CTETRA       667       2     414    2725    2826    2814    3881    3922+
+           4736    4738    4734    4733
CTETRA       668       2     413    2826     414    2820    4739    4736+
+            962    4740    4737    3879
CTETRA       669       2     404    2823     415    2814    4247    4249+
+            966    3832    4732    4741
CTETRA       670       2     394     405     404    2811     938     937+
+            936    3818    4349    3830
CTETRA       671       2     382    2647    2646    2648    4742    3006+
+           3011    3014    3010    3009
CTETRA       672       2     379     390    2813    2647     895    4743+
+           4744    4745    4746    3824
CTETRA       673       2     391    2647     392    2812    3828    4747+
+            900    3829    3826    4748
CTETRA       674       2     390     391    2813    2647     897    3827+
+           4743    4746    3828    3824
CTETRA       675       2    2273    2281    2280    2871    2367    2366+
+           2365    4749    4750    4751
CTETRA       676       2     379    2813    2645    2647    4744    4722+
+           4752    4745    3824    3007
CTETRA       677       2    1612    1613    1623    2638    2015    2045+
+           2044    4523    4513    2983
CTETRA       678       2     515     526     525    2855    1279    1278+
+           1277    4681    4667    4753
CTETRA       679       2     315    2809     316    2720    4754    4755+
+            686    4756    4757    3723
CTETRA       680       2     313    2715    2716    2720    4758    3249+
+           3811    3813    4337    3814
CTETRA       681       2    2809    2720    2736    2737    4757    4759+
+           3803    3802    3815    3369
CTETRA       682       2    2714    2641    2640    2642    3263    2992+
+           3269    3264    2996    2995
CTETRA       683       2    2719    2640    2720    2642    3277    3282+
+           4760    4761    2995    4338
CTETRA       684       2     313     324    2715    2720     709    4762+
+           4758    3813    3607    4337
CTETRA       685       2     315    2736    2809    2720    4763    3803+
+           4754    4756    4759    4757
CTETRA       686       2     324    2720     325    2642    3607    3606+
+            711    3004    4338    4764
CTETRA       687       2     345    2704    2644    2710    4765    3197+
+           3677    3654    3216    3953
CTETRA       688       2     330     331    2708    2705     729    4766+
+           4767    4768    3220    3205
CTETRA       689       2     332    2705     333    2704    3221    4343+
+            735    3224    3223    3243
CTETRA       690       2     320    2839    2717    2705    4769    4295+
+           4770    4771    4339    3260
CTETRA       691       2     321    2717     322    2705    3273    4340+
+            704    4772    3260    4773
CTETRA       692       2    1606    1607    1617    2774    1999    2029+
+           2028    4210    4206    4774
CTETRA       693       2      84     543     532    2603    1406    1328+
+           1407    4775    3409    4776
CTETRA       694       2    2688    2690    2677    2689    4414    3159+
+           4777    3140    3160    3148
CTETRA       695       2     263    2688    2861    2677    4313    4412+
+           4411    3117    4777    4442
CTETRA       696       2     264    2688    2677    2689    3137    4777+
+           3116    3138    3140    3148
CTETRA       697       2     165    2693     166    2677    3150    4124+
+            175    3115    4457    4778
CTETRA       698       2    2688    2690    2861    2677    4414    4418+
+           4412    4777    3159    4442
CTETRA       699       2     166    2693    2801    2677    4124    4123+
+           4122    4778    4457    4779
CTETRA       700       2    2615    2779    2842    2783    4780    4147+
+           4449    3598    4148    4150
CTETRA       701       2    2803    2683    2691    2692    3751    3984+
+           3983    3981    3974    3146
CTETRA       702       2    2676    2691    2683    2692    3143    3984+
+           4781    3144    3146    3974
CTETRA       703       2    2764    2765    2690    2842    3507    4782+
+           4783    4784    4447    4441
CTETRA       704       2    2676    2761    2678    2778    4310    4067+
+           3570    3573    4312    3574
CTETRA       705       2    2803    2761    2678    2692    4068    4067+
+           4001    3981    4460    4003
CTETRA       706       2    2691    2801    2690    2677    3733    3732+
+           3142    3153    4779    3159
CTETRA       707       2    2761    2690    2765    2857    4309    4782+
+           4785    4321    4324    4417
CTETRA       708       2    2807    2790    2808    2863    4786    3789+
+           3794    4787    4788    4626
CTETRA       709       2    1566    1577    2795    2863    1914    4789+
+           4790    4625    4791    4431
CTETRA       710       2    1569    2790    1580    2863    4792    4793+
+           1923    4794    4788    4795
CTETRA       711       2     385     396     395    2822     913     912+
+            911    3894    3941    3946
CTETRA       712       2    2795    2794    2791    2862    4796    3667+
+           3683    4432    4423    4422
CTETRA       713       2    1567    2808    1568    2863    4624    4797+
+           1888    4627    4626    4798
CTETRA       714       2    1569    2808    2790    2863    4799    3789+
+           4792    4794    4626    4788
CTETRA       715       2     437    2700     448    2701    4800    4801+
+           1059    4802    3185    4803
CTETRA       716       2     434    2694    2833    2701    4561    4804+
+           4805    4806    3186    4807
CTETRA       717       2     434     445    2694    2701    1050    3162+
+           4561    4806    4808    3186
CTETRA       718       2     445    2694    2701    2696    3162    3186+
+           4808    3167    3180    3188
CTETRA       719       2     446    2701     447    2696    4809    4810+
+           1055    3168    3188    4811
CTETRA       720       2     450    2700     451    2698    4812    3854+
+           1067    4813    4814    4815
CTETRA       721       2     429     430     440    2724    1008    1038+
+           1037    3292    3314    4120
CTETRA       722       2     430     440    2724    2726    1038    4120+
+           3314    3312    4816    3313
CTETRA       723       2     432    2833     443    2726    4817    4818+
+           1046    4819    4023    3858
CTETRA       724       2    2833    2724    2726    2723    4027    3313+
+           4023    4820    3296    3316
CTETRA       725       2     440    2700    2724    2726    3852    4043+
+           4120    4816    3864    3313
CTETRA       726       2     430     431    2726    2723    1011    4821+
+           3312    3315    4822    3316
CTETRA       727       2     503    2845     514    2836    4823    4682+
+           1245    4824    4825    4826
CTETRA       728       2    2732    2845    2847    2855    4165    4604+
+           4827    4243    4685    4689
CTETRA       729       2     512     513    2847    2836    1241    4686+
+           4828    4829    4830    4831
CTETRA       730       2     502    2835    2867    2836    4034    4617+
+           4832    4037    4036    4833
CTETRA       731       2     511     512    2847    2836    1238    4828+
+           4834    4835    4829    4831
CTETRA       732       2    1627    1628    1638    2830    2058    2088+
+           2087    4285    3997    4294
CTETRA       733       2     500    2847    2835    2836    4836    4603+
+           4837    4838    4831    4036
CTETRA       734       2     500     511    2847    2836    1236    4834+
+           4836    4838    4835    4831
CTETRA       735       2       3     234    2753    2789     241    3567+
+           4660    4839    4840    3728
CTETRA       736       2     424    2833    2722    2639    4841    4842+
+           3871    3874    4843    3303
CTETRA       737       2    2833    2701    2700    2834    4807    3185+
+           4022    4024    4042    4025
CTETRA       738       2    2833    2694    2700    2701    4804    3184+
+           4022    4807    3186    3185
CTETRA       739       2    2724    2726    2700    2834    3313    3864+
+           4043    4028    4026    4025
CTETRA       740       2    2694    2698    2700    2696    3179    4814+
+           3184    3180    3174    3187
CTETRA       741       2     437    2700    2701    2834    4800    3185+
+           4802    4844    4025    4042
CTETRA       742       2    2694    2700    2698    2817    3184    4814+
+           3179    3850    3857    4845
CTETRA       743       2     448    2700    2698    2696    4801    4814+
+           4846    4847    3187    3174
CTETRA       744       2     140    2739    2612    2609    4230    4231+
+           3388    3390    4356    2898
CTETRA       745       2    1497    1508    2747    2748    1721    4848+
+           4849    4564    4850    3423
CTETRA       746       2     137    2740     138    2610    4851    3394+
+            156    4852    4853    3399
CTETRA       747       2     140      12    2739    2741    2570    3386+
+           4230    3405    4854    4855
CTETRA       748       2     140    2741    2739    2609    3405    4855+
+           4230    3390    3406    4356
CTETRA       749       2      11    2514      12    2741    2535    2534+
+             26    4856    4857    4854
CTETRA       750       2     369     380     379    2646     867     866+
+            865    4858    4859    4860
CTETRA       751       2     138    2516      10    2741    3391    2538+
+           2574    3398    4861    4862
CTETRA       752       2      10    2516      11    2741    2538    2540+
+             29    4862    4861    4856
CTETRA       753       2     234    1486    2743    2798    4863    4864+
+           4865    4866    4867    3692
CTETRA       754       2    1495    2848    2743    2747    4868    4869+
+           4870    4871    4872    4873
CTETRA       755       2    1494    2848    2742    2743    4874    4875+
+           4876    4877    4869    3411
CTETRA       756       2    1486    1497    2743    2798    1689    4562+
+           4864    4867    4563    3692
CTETRA       757       2      83       7     136    2604     135     158+
+           1404    4878    4879    4880
CTETRA       758       2      56    1564    2804    2627    2200    4881+
+           4882    4883    4884    3761
CTETRA       759       2    1556    1567    1566    2808    1886    1885+
+           1884    4054    4624    4623
CTETRA       760       2    1561    1571    2805    2792    1899    3796+
+           3778    3776    3797    3777
CTETRA       761       2    1563    2804    1564    2627    3754    4881+
+           1878    2940    3761    4884
CTETRA       762       2    1562    1563    2627    2775    1875    2940+
+           3799    3553    3558    3763
CTETRA       763       2    2804    2837    2807    2786    4632    4629+
+           3771    3769    4057    3770
CTETRA       764       2    2807    2790    2795    2792    4786    3682+
+           4885    3785    3791    4886
CTETRA       765       2    1599    2851    2773    2872    4581    4197+
+           4579    4887    4888    4889
CTETRA       766       2    1599    1600    2851    2872    1978    4582+
+           4581    4887    4890    4888
CTETRA       767       2    2772    2852    2633    2638    4198    4516+
+           4891    4509    4514    4519
CTETRA       768       2    1578    1579    1589    2862    1919    1949+
+           1948    4892    4425    4438
CTETRA       769       2    1614    1615    2772    2851    2021    4192+
+           4893    4894    4194    4193
CTETRA       770       2    1609    1610    2633    2773    2006    4515+
+           4895    4896    4578    4897
CTETRA       771       2     527     528     538    2730    1284    1314+
+           1313    4670    3359    4664
CTETRA       772       2     164     263     262    2857    1466     562+
+           1469    4898    4317    4899
CTETRA       773       2     136       1    2740    2873    2579    4900+
+           4901    4902    4903    4904
CTETRA       774       2    2513    2874    2607    2873    4905    4906+
+           4907    4908    4909    4910
CTETRA       775       2      17    2513      18    2873    2521    2522+
+             21    4911    4908    4912
CTETRA       776       2       7    2604     146    2873    4879    4353+
+            147    4913    4914    4915
CTETRA       777       2    2511    2513    2607    2873    2526    4907+
+           4916    4917    4908    4910
CTETRA       778       2     169    2780    2764    2842    4454    4918+
+           4919    4455    4146    4784
CTETRA       779       2    2702    2764    2690    2842    3500    4783+
+           3745    4440    4784    4441
CTETRA       780       2     163    2860     164    2857    4407    4920+
+            177    4410    4409    4898
CTETRA       781       2     169    2702     267    2801    4921    4922+
+           1459    4452    4439    4923
CTETRA       782       2     107     279     108    2803    1453    1454+
+            110    3958    3985    3749
CTETRA       783       2    2613    2616    2780    2783    2918    4924+
+           4925    4141    4140    4149
CTETRA       784       2    2803    2702    2762    2690    3744    4061+
+           4066    3746    3745    4926
CTETRA       785       2     266     267    2691    2801     578    4927+
+           4928    4929    4923    3733
CTETRA       786       2     458    2712    2695    2697    4930    4931+
+           3175    4932    4933    3170
CTETRA       787       2      89    2711     477    2712    4934    4935+
+           1417    4936    3229    4705
CTETRA       788       2     475     476    2711    2649    1138    4937+
+           4938    4939    3017    4940
CTETRA       789       2     341     352     351    2752     789     788+
+            787    4941    4942    3434
CTETRA       790       2    1570    1571    1581    2790    1897    1927+
+           1926    4943    3795    3656
CTETRA       791       2    2695    2697    2712    2865    3170    4933+
+           4931    4703    4944    4945
CTETRA       792       2    2864    2712    2697    2865    4946    4933+
+           4947    4560    4945    4944
CTETRA       793       2     486     487     497    2875    1169    1199+
+           1198    4948    4949    4950
CTETRA       794       2     486     497    2868    2875    1198    4951+
+           4952    4948    4950    4953
CTETRA       795       2     486    2868    2711    2875    4952    4954+
+           4955    4948    4953    4956
CTETRA       796       2     479    2711     480    2875    4957    4958+
+           1148    4959    4956    4960
CTETRA       797       2     496     497    2867    2868    1197    4612+
+           4611    4961    4951    4962
CTETRA       798       2     497    2867    2868    2875    4612    4962+
+           4951    4950    4963    4953
CTETRA       799       2     279     290     289    2760     615     614+
+            613    3742    3977    3490
CTETRA       800       2     498    2835    2867    2875    4618    4617+
+           4616    4964    4965    4963
CTETRA       801       2     262     263     273    2778     562     561+
+            560    4966    4314    4405
CTETRA       802       2     495     496    2867    2868    1194    4611+
+           4967    4968    4961    4962
CTETRA       803       2     491    2868    2867    2875    4969    4962+
+           4970    4971    4953    4963
CTETRA       804       2    1499    1500    1510    2673    1696    1726+
+           1725    3291    3340    3326
CTETRA       805       2     494     495    2867    2868    1191    4967+
+           4972    4973    4968    4962
CTETRA       806       2    1550    1561    1560    2776    1870    1869+
+           1868    4974    3555    3561
CTETRA       807       2     493     494    2867    2868    1188    4972+
+           4975    4976    4973    4962
CTETRA       808       2     492     493    2867    2868    1185    4975+
+           4977    4978    4976    4962
CTETRA       809       2     302     303    2737    2734     649    3383+
+           4979    4980    3384    3370
CTETRA       810       2     315     316    2809    2736     686    4755+
+           4754    4763    4981    3803
CTETRA       811       2     305    2809     316    2736    4982    4755+
+            687    4983    3803    4981
CTETRA       812       2     305    2838    2809    2736    4984    4082+
+           4982    4983    4071    3803
CTETRA       813       2     314    2736     315    2720    4985    4763+
+            683    3605    4759    4756
CTETRA       814       2     314    2736    2720    2737    4985    4759+
+           3605    4986    3369    3815
CTETRA       815       2    1514    2674    2618    2620    4987    3110+
+           4988    4544    3107    2922
CTETRA       816       2    1516    2618    2674    2675    4989    3110+
+           4990    4991    3111    3105
CTETRA       817       2    1527    2624    2618    2675    4992    4532+
+           4993    4994    4995    3111
CTETRA       818       2    2618    2625    2624    2621    4996    2932+
+           4532    2923    2936    2935
CTETRA       819       2    2618    2620    2675    2625    2922    3106+
+           3111    4996    4997    4475
CTETRA       820       2    1584    1595    1594    2791    1966    1965+
+           1964    3668    4998    4999
CTETRA       821       2    1584    2794    1595    2791    3666    5000+
+           1966    3668    3667    4998
CTETRA       822       2    2795    2791    2794    2793    3683    3667+
+           4796    3675    3671    3670
CTETRA       823       2    1584    1585    2794    2793    1937    5001+
+           3666    3669    3676    3670
CTETRA       824       2    2795    2791    2790    2863    3683    3659+
+           3682    4431    4430    4788
CTETRA       825       2    1590    2872    2794    2866    5002    5003+
+           4420    5004    5005    5006
CTETRA       826       2    1562    2627    1573    2792    3799    2942+
+           1904    3798    3784    3662
CTETRA       827       2    1595    2791    2794    2866    4998    3667+
+           5000    4571    5007    5006
CTETRA       828       2    2772    2633    2773    2771    4891    4897+
+           3548    3546    3540    3547
CTETRA       829       2    1607    2773    2851    2872    4204    4197+
+           4208    5008    4889    4888
CTETRA       830       2      51    2633    1619    2773    5009    5010+
+           2190    5011    4897    5012
CTETRA       831       2     463     464     474    2865    1104    1134+
+           1133    4692    5013    5014
CTETRA       832       2    1600    1601    2851    2866    1981    4583+
+           4582    5015    5016    5017
CTETRA       833       2    1589    1590    1600    2872    1950    1980+
+           1979    5018    5002    4890
CTETRA       834       2    1589    2794    1590    2872    4435    4420+
+           1950    5018    5003    5002
CTETRA       835       2    1606    1607    2851    2872    1999    4208+
+           4209    5019    5008    4888
CTETRA       836       2    1595    1596    1606    2872    1968    1998+
+           1997    5020    5021    5019
CTETRA       837       2    1595    2872    1606    2866    5020    5019+
+           1997    4571    5005    5022
CTETRA       838       2    1595    2794    2872    2866    5000    5003+
+           5020    4571    5006    5005
CTETRA       839       2    1560    1571    1570    2805    1898    1897+
+           1896    3764    3796    5023
CTETRA       840       2    1606    2872    2851    2866    5019    4888+
+           4209    5022    5005    5017
CTETRA       841       2     368    2645    2653    2646    5024    5025+
+           5026    5027    3005    3065
CTETRA       842       2    2653    2658    2660    2650    4385    4390+
+           4380    3067    3064    3061
CTETRA       843       2    2618    2675    2624    2625    3111    4995+
+           4532    4996    4475    2932
CTETRA       844       2     379    2645    2646    2647    4752    3005+
+           4860    4745    3007    3006
CTETRA       845       2    1489    2777    1500    2728    4376    5028+
+           1697    4377    3566    3339
CTETRA       846       2     371    2650     372    2648    3060    5029+
+            844    3013    3022    5030
CTETRA       847       2    1495    1506    1505    2667    1715    1714+
+           1713    5031    5032    5033
CTETRA       848       2     162     189     163    2860    2595    2594+
+            178    4406    5034    4407
CTETRA       849       2    2645    2647    2652    2648    3007    3823+
+           5035    3008    3010    3030
CTETRA       850       2     380    2646     381    2647    4859    5036+
+            869    5037    3006    5038
CTETRA       851       2     350    2832    2859    2641    4648    4651+
+           5039    4649    4650    4398
CTETRA       852       2     359    2859     360    2660    5040    5041+
+            810    5042    4391    3058
CTETRA       853       2     361    2832    2658    2859    5043    5044+
+           5045    5046    4651    4392
CTETRA       854       2     357    2858    2859    2660    5047    5048+
+           5049    5050    4379    4391
CTETRA       855       2     358    2859     359    2660    5051    5040+
+            807    5052    4391    5042
CTETRA       856       2     347    2858    2796    2859    5053    5054+
+           5055    4394    5048    4404
CTETRA       857       2     231     232    1482    2742     239    5056+
+           3510    3519    3718    3520
CTETRA       858       2    2832    2658    2859    2841    5044    4392+
+           4651    4113    4387    4393
CTETRA       859       2     311    2755     312    2718    3457    4729+
+            676    3458    3459    3453
CTETRA       860       2     105    2735    2679    2734    4727    3365+
+           4019    4021    3364    3363
CTETRA       861       2     292    2810     303    2734    5057    3808+
+            650    3381    3810    3384
CTETRA       862       2    2735    2716    2718    2738    3807    3257+
+           3454    4308    3806    3450
CTETRA       863       2    2685    2736    2810    2686    5058    3809+
+           4307    3131    4072    4099
CTETRA       864       2    2685    2838    2736    2686    5059    4071+
+           5058    3131    4073    4072
CTETRA       865       2    1489    1490    1500    2777    1660    1698+
+           1697    4376    5060    5028
CTETRA       866       2     104    2735     105    2734    3377    4727+
+            113    3378    3364    4021
CTETRA       867       2    2679    2686    2684    2831    3366    3132+
+           4091    4008    4100    4097
CTETRA       868       2    1593    2791    1594    2866    5061    4999+
+           1962    5062    5007    4570
CTETRA       869       2    1590    2791    1591    2866    4419    5063+
+           1953    5004    5007    5064
CTETRA       870       2    1594    2791    1595    2866    4999    4998+
+           1965    4570    5007    4571
CTETRA       871       2    1585    2795    1586    2794    3673    5065+
+           1940    5001    4796    5066
CTETRA       872       2    1514    1515    1525    2618    1739    1769+
+           1768    4988    5067    5068
CTETRA       873       2    1585    2795    2794    2793    3673    4796+
+           5001    3676    3675    3670
CTETRA       874       2      54    1586    2795    2794    2196    5065+
+           5069    5070    5066    4796
CTETRA       875       2    1577    2863    1578    2862    4791    5071+
+           1916    5072    4433    4892
CTETRA       876       2    1576    2795    1577    2862    5073    4789+
+           1913    4428    4432    5072
CTETRA       877       2      54    2795    1576    2794    5069    5073+
+           2148    5070    4796    4427
CTETRA       878       2    1552    2784    1553    2804    3757    5074+
+           1847    3753    3758    5075
CTETRA       879       2    1543    2784    1544    2804    5076    3630+
+           1820    5077    3758    5078
CTETRA       880       2    1569    2805    1570    2790    5079    5023+
+           1894    4792    3788    4943
CTETRA       881       2    1556    1566    2837    2808    1884    4630+
+           4056    4054    4623    4055
CTETRA       882       2      57    1553    2784    2804    2202    5074+
+           5080    5081    5075    3758
CTETRA       883       2      57    2784    1543    2804    5080    5076+
+           2142    5081    3758    5077
CTETRA       884       2     475    2711     486    2864    4938    4955+
+           1167    5082    5083    5084
CTETRA       885       2     475     476     486    2711    1138    1168+
+           1167    4938    4937    4955
CTETRA       886       2     480    2711    2868    2875    4958    4954+
+           5085    4960    4956    4953
CTETRA       887       2     490     491    2835    2875    1179    5086+
+           5087    5088    4971    4965
CTETRA       888       2    1551    1552    1562    2776    1844    1874+
+           1873    5089    3755    3556
CTETRA       889       2     486    2711     487    2875    4955    5090+
+           1169    4948    4956    4949
CTETRA       890       2     469    2864    2711    2712    5091    5083+
+           5092    5093    4946    3229
CTETRA       891       2     469     480    2711    2864    1149    4958+
+           5092    5091    5094    5083
CTETRA       892       2    2615    2779    2783    2664    4780    4148+
+           3598    3596    5095    3597
CTETRA       893       2    2843    2664    2662    2614    4135    3073+
+           4491    4217    3079    3078
CTETRA       894       2    2665    2635    2662    2614    4495    4486+
+           3075    3077    4222    3078
CTETRA       895       2    2779    2780    2783    2664    3585    4149+
+           4148    5095    5096    3597
CTETRA       896       2    1510    1511    1521    2621    1727    1757+
+           1756    3328    3329    2929
CTETRA       897       2    1540    2629    1541    2628    5097    4464+
+           1813    5098    2948    5099
CTETRA       898       2     186    2844    2661    2779    5100    4138+
+           5101    3602    5102    5103
CTETRA       899       2     186    2779    2661    2781    3602    5103+
+           5101    3604    3587    3616
CTETRA       900       2     415    2823    2725    2814    4249    5104+
+           3888    4741    4732    4734
CTETRA       901       2     419     420    2725    2824     980    3307+
+           3306    5105    4335    3924
CTETRA       902       2      95     411    2816    2826    1429    3911+
+           5106    5107    3913    3912
CTETRA       903       2      95    2816     401    2826    5106    5108+
+           1357    5107    3912    5109
CTETRA       904       2     412    2722    2826    2820    5110    5111+
+           5112    5113    3872    4737
CTETRA       905       2      94    2826    2722    2721    5114    5111+
+           5115    5116    3923    3284
CTETRA       906       2     465    2695    2865    2699    4699    4703+
+           5117    4701    3183    4696
CTETRA       907       2     458     459    2697    2696    1089    5118+
+           4932    3178    5119    3173
CTETRA       908       2    2694    2698    2699    2817    3179    3182+
+           3181    3850    4845    3851
CTETRA       909       2     459    2698    2697    2696    5120    3171+
+           5118    5119    3174    3173
CTETRA       910       2    1506    2747    2671    2667    5121    4526+
+           5122    5032    4527    3090
CTETRA       911       2    1533    2622    1534    2750    5123    5124+
+           1792    5125    4266    5126
CTETRA       912       2    2695    2698    2697    2865    3172    3171+
+           3170    4703    4693    4944
CTETRA       913       2    1518    1519    1529    2625    1751    1781+
+           1780    4474    4468    4470
CTETRA       914       2     453     454    2699    2817    1076    3848+
+           5127    5128    3849    3851
CTETRA       915       2      92    2833     434    2694    5129    4805+
+           1363    5130    4804    4561
CTETRA       916       2     434    2833     435    2701    4805    5131+
+           1021    4806    4807    4039
CTETRA       917       2      92     444    2833    2694    1423    5132+
+           5129    5130    5133    4804
CTETRA       918       2     435    2701    2833    2834    4039    4807+
+           5131    4040    4042    4024
CTETRA       919       2     443    2833    2694    2726    4818    4804+
+           3860    3858    4023    3859
CTETRA       920       2     447    2701     448    2696    4810    4803+
+           1058    4811    3188    4847
CTETRA       921       2    2694    2726    2700    2817    3859    3864+
+           3184    3850    3862    3857
CTETRA       922       2    2833    2700    2694    2726    4022    3184+
+           4804    4023    3864    3859
CTETRA       923       2     441    2726     442    2817    3865    5134+
+           1042    3855    3862    5135
CTETRA       924       2     451    2698    2700    2817    4815    4814+
+           3854    3856    4845    3857
CTETRA       925       2     443    2694     454    2817    3860    3847+
+           1077    3861    3850    3849
CTETRA       926       2     442    2726     443    2817    5134    3858+
+           1045    5135    3862    3861
CTETRA       927       2    1542    1553    1552    2784    1848    1847+
+           1846    5136    5074    3757
CTETRA       928       2    1541    2784    1552    2628    5137    3757+
+           1845    5099    4262    5138
CTETRA       929       2    1541    2626    2784    2628    4265    4261+
+           5137    5099    2947    4262
CTETRA       930       2    1549    2628    1550    2776    5139    5140+
+           1838    5141    5142    4974
CTETRA       931       2      59    1531    2631    2626    2206    3638+
+           3637    5143    4263    5144
CTETRA       932       2    1539    2629    2628    2630    5145    2948+
+           5146    5147    2952    2951
CTETRA       933       2    1550    2628    1551    2776    5140    5148+
+           1841    4974    5142    5089
CTETRA       934       2    1551    2628    1552    2776    5148    5138+
+           1844    5089    5142    3755
CTETRA       935       2    2784    2749    2806    2776    3620    5149+
+           5150    3759    5151    5152
CTETRA       936       2     160    2765     259    2763    3508    5153+
+           1474    3506    3509    3496
CTETRA       937       2    2761    2690    2762    2763    4309    4926+
+           3494    3497    5154    3498
CTETRA       938       2     169    2764    2702    2842    4919    3500+
+           4921    4455    4784    4440
CTETRA       939       2       6    2764     169    2780    5155    4919+
+            171    5156    4918    4454
CTETRA       940       2    2764    2780    2616    2783    4918    4924+
+           5157    5158    4149    4140
CTETRA       941       2    2764    2842    2780    2783    4784    4146+
+           4918    5158    4150    4149
CTETRA       942       2     265     266    2691    2801     574    4928+
+           3154    5159    4929    3733
CTETRA       943       2       6     159    2764    2616     170    3501+
+           5155    5160    5161    5157
CTETRA       944       2     160    2765    2764    2616    3508    3507+
+           3505    5162    5163    5157
CTETRA       945       2    2764    2765    2842    2783    3507    4447+
+           4784    5158    4451    4150
CTETRA       946       2    2661    2781    2779    2664    3616    3587+
+           5103    3072    3612    5095
CTETRA       947       2     191    2616     192    2614    2915    2917+
+            194    4652    2919    2906
CTETRA       948       2    2844    2779    2615    2664    5102    4780+
+           4145    4139    5095    3596
CTETRA       949       2    2844    2661    2779    2664    4138    5103+
+           5102    4139    3072    5095
CTETRA       950       2    1634    1635    2665    2636    2077    5164+
+           4494    4497    5165    4498
CTETRA       951       2    2613    2783    2664    2614    4141    3597+
+           3595    2907    3600    3079
CTETRA       952       2    2843    2662    2635    2614    4491    4486+
+           5166    4217    3078    4222
CTETRA       953       2     284    2684     295    2831    5167    5168+
+            628    5169    4097    4298
CTETRA       954       2     292    2657    2810    2670    3039    4006+
+           5057    3087    4015    5170
CTETRA       955       2     283    2684     284    2831    4095    5167+
+            596    4096    4097    5169
CTETRA       956       2    2679    2684    2657    2831    4091    4094+
+           4005    4008    4097    4009
CTETRA       957       2    2684    2686    2685    2831    3132    3131+
+           3130    4097    4100    4299
CTETRA       958       2     293    2657     294    2810    5171    5172+
+            624    5173    4006    4088
CTETRA       959       2     292    2657     293    2810    3039    5171+
+            621    5057    4006    5173
CTETRA       960       2      49    1620    1631    2632    2157    2066+
+           2158    5174    2964    2976
CTETRA       961       2     374     375    2659    2656     853    3900+
+           3049    3052    3056    3053
CTETRA       962       2    2653    2651    2654    2656    3066    3891+
+           3031    3034    3047    3035
CTETRA       963       2    2653    2655    2658    2656    3033    4386+
+           4385    3034    3036    3048
CTETRA       964       2     376    2655     377    2654    3041    5175+
+            859    3043    3032    5176
CTETRA       965       2     378    2655    2653    2654    5177    3033+
+           5178    5179    3032    3031
CTETRA       966       2    2652    2659    2822    2828    3893    3898+
+           3895    5180    4707    3931
CTETRA       967       2     388    2654    2645    2828    4711    5181+
+           5182    4713    4712    4723
CTETRA       968       2     373     374     384    2651     850     880+
+            879    3020    3051    3026
CTETRA       969       2     387    2659    2654    2828    3929    3890+
+           3928    3937    4707    4712
CTETRA       970       2    1504    1515    1514    2674    1740    1739+
+           1738    5183    5184    4987
CTETRA       971       2     325    2720    2640    2642    3606    3282+
+           3760    4764    4338    2995
CTETRA       972       2      58      59    1521    2626      69    2138+
+           2139    5185    5143    2938
CTETRA       973       2     432     433    2833    2723    1017    5186+
+           4817    5187    3286    4820
CTETRA       974       2       3    2753     228    2789    4660    3729+
+            237    4839    3728    3721
CTETRA       975       2     423    2722     424    2833    5188    3871+
+            990    5189    4842    4841
CTETRA       976       2     228    2753    2787    2789    3729    3635+
+           3719    3721    3728    3644
CTETRA       977       2     233    2797    2788    2789    3688    3707+
+           3725    3727    3716    3645
CTETRA       978       2     432    2833    2726    2723    4817    4023+
+           4819    5187    4820    3316
CTETRA       979       2     424     425    2834    2639     993    4047+
+           5190    3874    4048    4045
CTETRA       980       2     419     429    2725    2723    1007    3294+
+           3306    3308    3295    3297
CTETRA       981       2     229     230    2769    2787     236    5191+
+           4184    3720    5192    3640
CTETRA       982       2    2833    2834    2724    2639    4024    4028+
+           4027    4843    4045    3304
CTETRA       983       2     429     430    2724    2723    1008    3314+
+           3292    3295    3315    3296
CTETRA       984       2     426     427    2834    2639     999    4031+
+           4046    4049    2990    4045
CTETRA       985       2    2722    2721    2725    2723    3284    3310+
+           3298    3288    3287    3297
CTETRA       986       2     420    2721     431    2723    3311    5193+
+           1012    3309    3287    4822
CTETRA       987       2    1478    1489    2849    2768    1657    5194+
+           4554    5195    4374    4191
CTETRA       988       2    2722    2725    2820    2639    3298    3880+
+           3872    3303    3305    3875
CTETRA       989       2    2645    2651    2652    2659    3024    3028+
+           5035    5196    3050    3893
CTETRA       990       2     382    2652     393    2647    5197    5198+
+            904    4742    3823    5199
CTETRA       991       2    2645    2652    2651    2648    5035    3028+
+           3024    3008    3030    3023
CTETRA       992       2     392    2647     393    2812    4747    5199+
+            903    4748    3826    5200
CTETRA       993       2    2813    2811    2652    2812    5201    3817+
+           3822    3825    3821    3820
CTETRA       994       2     393    2652     394    2812    5198    3816+
+            906    5200    3820    3819
CTETRA       995       2    2672    2625    2669    2621    3095    3099+
+           3098    4481    2936    3104
CTETRA       996       2    1511    2727    2620    2673    4540    4542+
+           4537    3327    3336    3100
CTETRA       997       2    2674    2668    2667    2669    3581    3081+
+           5202    3108    3085    3084
CTETRA       998       2    2666    2672    2671    2669    3330    3097+
+           3089    3083    3098    3091
CTETRA       999       2    2695    2865    2712    2649    4703    4945+
+           4931    5203    5204    4706
CTETRA      1000       2     472    2864    2697    2865    4557    4947+
+           5205    4558    4560    4944
CTETRA      1001       2     461    2697    2698    2865    5206    3171+
+           5207    5208    4944    4693
CTETRA      1002       2    1490    2768    1491    2777    5209    4529+
+           1664    5060    4375    3576
CTETRA      1003       2    2849    2789    2850    2745    4175    4180+
+           4189    4176    3693    4182
CTETRA      1004       2    2742    2766    2769    2745    3521    3530+
+           3529    3414    4188    4181
CTETRA      1005       2    2746    2768    2728    2744    4166    4367+
+           3417    3419    4167    3420
CTETRA      1006       2    2768    2777    2728    2744    4375    3566+
+           4367    4167    4530    3420
CTETRA      1007       2    2743    2748    2747    2744    4565    3423+
+           4873    3412    3426    3425
CTETRA      1008       2    2867    2836    2835    2846    4833    4036+
+           4617    4614    5210    4620
CTETRA      1009       2     498     499    2835    2875    1203    5211+
+           4618    4964    5212    4965
CTETRA      1010       2      87     510     499    2835    1412    1235+
+           1413    5213    4602    5211
CTETRA      1011       2     516     517    2732    2845    1253    3353+
+           5214    5215    4157    4165
CTETRA      1012       2     515     516    2732    2845    1250    5214+
+           4679    4683    5215    4165
CTETRA      1013       2     367    2858    2653    2655    5216    4381+
+           5217    5218    4399    3033
CTETRA      1014       2     375    2654    2659    2656    3042    3890+
+           3900    3056    3035    3053
CTETRA      1015       2     363    2658     364    2656    5219    5220+
+            822    5221    3048    3055
CTETRA      1016       2     362     363     373    2658     819     849+
+            848    3062    5219    3045
CTETRA      1017       2    2658    2815    2655    2841    5222    3838+
+           4386    4387    4115    4388
CTETRA      1018       2     364    2658    2815    2655    5220    5222+
+           4102    3054    4386    3838
CTETRA      1019       2     261     272    2761    2778     556    5223+
+           4320    4323    5224    4312
CTETRA      1020       2     364    2658    2655    2656    5220    4386+
+           3054    3055    3048    3036
CTETRA      1021       2    2653    2658    2651    2656    4385    3044+
+           3066    3034    3048    3047
CTETRA      1022       2     531    2603     542    2611    5225    2877+
+           1325    3341    5226    2896
CTETRA      1023       2     531    2869    2611    2729    5227    5228+
+           3341    3344    4610    3345
CTETRA      1024       2    2607    2606    2756    2609    2884    3465+
+           4350    3408    2899    3468
CTETRA      1025       2     138    2741     139    2610    3398    5229+
+            155    3399    3400    5230
CTETRA      1026       2     529    2611    2730    2729    5231    3347+
+           5232    5233    3345    3346
CTETRA      1027       2     520    2869     531    2729    4607    5227+
+           1294    4608    4610    3344
CTETRA      1028       2     531     532    2603    2869    1296    4776+
+           5225    5227    5234    5235
CTETRA      1029       2     542    2604    2610    2605    2879    3403+
+           2894    2880    2882    2893
CTETRA      1030       2     540    2612    2730    2611    5236    4665+
+           5237    5238    2902    3347
CTETRA      1031       2     529     540    2730    2611    1319    5237+
+           5232    5231    5238    3347
CTETRA      1032       2    2603    2869    2854    2731    5235    4673+
+           5239    3460    4674    4239
CTETRA      1033       2     525     536     535    2853    1307    1306+
+           1305    5240    4358    4234
CTETRA      1034       2     538    2730     539    2612    4664    5241+
+           1315    4344    4665    5242
CTETRA      1035       2    2730    2612    2853    2731    4665    4666+
+           4245    3348    3401    4240
CTETRA      1036       2     525    2854    2855    2853    5243    4663+
+           4753    5240    4237    4246
CTETRA      1037       2     538    2853    2612    2757    4661    4666+
+           4344    4346    4236    4347
CTETRA      1038       2    1568    2808    1569    2863    4797    4799+
+           1891    4798    4626    4794
CTETRA      1039       2    1558    2806    2786    2785    4636    3775+
+           4052    4639    4638    3629
CTETRA      1040       2    1549    1560    2806    2776    1867    3766+
+           5244    5141    3561    5152
CTETRA      1041       2    2795    2792    2790    2793    4886    3791+
+           3682    3675    3664    3684
CTETRA      1042       2    2784    2806    2804    2776    5150    4640+
+           3758    3759    5152    3756
CTETRA      1043       2    1537    1548    1547    2749    1833    1832+
+           1831    4257    5245    5246
CTETRA      1044       2    1552    2628    2784    2776    5138    4262+
+           3757    3755    5142    3759
CTETRA      1045       2    1569    2805    2790    2808    5079    3788+
+           4792    4799    3790    3789
CTETRA      1046       2    1571    1572    2790    2792    1900    3786+
+           3795    3797    3661    3791
CTETRA      1047       2    1554    1565    2807    2837    1880    5247+
+           5248    5249    5250    4629
CTETRA      1048       2    1566    2807    2808    2863    4628    3794+
+           4623    4625    4787    4626
CTETRA      1049       2    1558    2805    1569    2808    4050    5079+
+           1892    4051    3790    4799
CTETRA      1050       2    1566    2795    2807    2863    4790    4885+
+           4628    4625    4431    4787
CTETRA      1051       2    1527    1528    1538    2624    1776    1806+
+           1805    4992    5251    4256
CTETRA      1052       2    1528    1538    2624    2630    1806    4256+
+           5251    5252    4253    3436
CTETRA      1053       2    1510    1521    2631    2621    1756    4228+
+           4227    3328    2929    2963
CTETRA      1054       2    1541    1552    1551    2628    1845    1844+
+           1843    5099    5138    5148
CTETRA      1055       2    1528    2624    2675    2629    5251    4995+
+           5253    5254    2960    5255
CTETRA      1056       2    1541    2629    2626    2628    4464    2949+
+           4265    5099    2948    2947
CTETRA      1057       2    1530    2631    2626    2623    4466    5144+
+           4463    2958    2961    2939
CTETRA      1058       2    1530    2631    1531    2626    4466    3638+
+           1785    4463    5144    4263
CTETRA      1059       2    2626    2750    2749    2751    4267    3428+
+           4260    3445    3432    3431
CTETRA      1060       2    1518    1529    1528    2675    1780    1779+
+           1778    4471    5256    5253
CTETRA      1061       2      61    1509    2666    2672    2210    4567+
+           3331    3300    3302    3330
CTETRA      1062       2    2618    2620    2625    2621    2922    4997+
+           4996    2923    2925    2936
CTETRA      1063       2    2848    2667    2674    2668    5257    5202+
+           5258    4170    3081    3581
CTETRA      1064       2    1500    2777    2727    2728    5028    3564+
+           5259    3339    3566    3334
CTETRA      1065       2    2666    2727    2673    2669    3333    3336+
+           3332    3083    4525    3101
CTETRA      1066       2     211     232     212    1483    2248    2249+
+            221    2223    3700    2224
CTETRA      1067       2      62    1498    2746    2748    2212    4575+
+           4370    4577    4576    4573
CTETRA      1068       2    2848    2667    2668    2744    5257    3081+
+           4170    4173    3563    3562
CTETRA      1069       2    1509    2666    2672    2671    4567    3330+
+           3302    4568    3089    3097
CTETRA      1070       2     352     353     363    2832     791     821+
+            820    5260    4011    4013
CTETRA      1071       2    2796    2643    2815    2710    3952    4112+
+           4105    3954    3215    4108
CTETRA      1072       2     360     361    2658    2859     813    5045+
+           5261    5041    5046    4392
CTETRA      1073       2     361    2832     362    2658    5043    5262+
+            816    5045    5044    3062
CTETRA      1074       2     339    2714    2752    2641    4656    4643+
+           5263    4657    3263    4644
CTETRA      1075       2    1492    1503    1502    2668    1706    1705+
+           1704    5264    3584    3578
CTETRA      1076       2      94    2826     412    2722    5114    5112+
+           1359    5115    5111    5110
CTETRA      1077       2    2823    2725    2814    2824    5104    4734+
+           4732    3903    3924    4735
CTETRA      1078       2      93     433      94    2722    1425    1426+
+            124    5265    3285    5115
CTETRA      1079       2     352    2832    2752    2709    5260    4402+
+           4942    5266    4109    4401
CTETRA      1080       2     367    2815    2858    2655    5267    4400+
+           5216    5218    3838    4399
CTETRA      1081       2     355     356     366    2815     800     830+
+            829    4116    4106    3836
CTETRA      1082       2     364    2658    2832    2815    5220    5044+
+           4012    4102    5222    4103
CTETRA      1083       2     356    2796    2858    2815    4104    5054+
+           5268    4106    4105    4400
CTETRA      1084       2     356    2858     367    2815    5268    5216+
+            832    4106    4400    5267
CTETRA      1085       2     377    2655     378    2654    5175    5177+
+            862    5176    3032    5179
CTETRA      1086       2     364    2815     365    2655    4102    3835+
+            825    3054    3838    3837
CTETRA      1087       2     363    2832     364    2658    4013    4012+
+            822    5219    5044    5220
CTETRA      1088       2     357    2653    2858    2660    5269    4381+
+           5047    5050    4380    4379
CTETRA      1089       2     369    2660     370    2646    5270    5271+
+            838    4858    5272    5273
CTETRA      1090       2    2653    2651    2645    2654    3066    3024+
+           5025    3031    3891    5181
CTETRA      1091       2     381    2646     382    2647    5036    3011+
+            872    5038    3006    4742
CTETRA      1092       2    1641    2632    2663    2770    5274    3999+
+           5275    5276    3994    3987
CTETRA      1093       2    2637    2632    2770    2830    4288    3994+
+           3536    3998    4000    3990
CTETRA      1094       2    2665    2635    2636    2662    4495    2971+
+           4498    3075    4486    4485
CTETRA      1095       2    1640    1641    2663    2770    2095    5275+
+           4290    4291    5276    3987
CTETRA      1096       2    1652    2663    2843    2664    5277    4490+
+           4133    3594    3074    4135
CTETRA      1097       2    1626    1636    2637    2830    2082    4274+
+           4282    4284    4275    3998
CTETRA      1098       2    1637    1648    2856    2661    2115    5278+
+           4279    4277    5279    4278
CTETRA      1099       2    1638    1649    2661    2663    2118    3613+
+           4293    4292    3614    3071
CTETRA      1100       2     191    1643    2617    2614    2164    4220+
+           2916    4652    4221    4144
CTETRA      1101       2    2665    2617    2635    2614    4143    4219+
+           4495    3077    4144    4222
CTETRA      1102       2     187     188    2844    2615     198    5280+
+           5281    5282    5283    4145
CTETRA      1103       2     188    1646    2844    2615    2170    5284+
+           5280    5283    4212    4145
CTETRA      1104       2    1645    2665    1646    2617    5285    4211+
+           2108    4226    4143    4213
CTETRA      1105       2     191    2617    2616    2614    2916    2914+
+           2915    4652    4144    2919
CTETRA      1106       2    2615    2765    2616    2783    4450    5163+
+           2910    3598    4451    4140
CTETRA      1107       2     190    2615    2765    2616    2909    4450+
+           5286    2911    2910    5163
CTETRA      1108       2    1580    2790    1581    2791    4793    3656+
+           1925    5287    3659    3658
CTETRA      1109       2    1557    1558    2808    2786    1860    4051+
+           4058    4059    4052    4053
CTETRA      1110       2    2620    2675    2625    2669    3106    4475+
+           4997    3102    3109    3099
CTETRA      1111       2    2807    2805    2792    2775    3793    3777+
+           3785    3773    3767    3779
CTETRA      1112       2    1582    1583    2791    2793    1931    5288+
+           3660    3787    5289    3671
CTETRA      1113       2    1558    2806    1559    2805    4636    5290+
+           1863    4050    3765    5291
CTETRA      1114       2    1579    1580    2791    2863    1922    5287+
+           4424    4434    4795    4430
CTETRA      1115       2    1560    1561    2805    2775    1869    3778+
+           3764    3560    3554    3767
CTETRA      1116       2    1559    2806    1560    2805    5290    3766+
+           1866    5291    3765    3764
CTETRA      1117       2    1582    2791    2790    2793    3660    3659+
+           3657    3787    3671    3684
CTETRA      1118       2    1580    2790    2791    2863    4793    3659+
+           5287    4795    4788    4430
CTETRA      1119       2    2679    2686    2681    2687    3366    4303+
+           3123    4098    3135    4304
CTETRA      1120       2    2684    2683    2680    2692    3318    3322+
+           3321    4092    3974    3976
CTETRA      1121       2     294    2810    2657    2831    4088    4006+
+           5172    4089    4010    4009
CTETRA      1122       2    2679    2810    2657    2670    4007    4006+
+           4005    4014    5170    4015
CTETRA      1123       2    2676    2684    2678    2692    5292    4459+
+           3570    3144    4092    4003
CTETRA      1124       2     296    2684     297    2685    5293    5294+
+            633    5295    3130    5296
CTETRA      1125       2     295    2684     296    2685    5168    5293+
+            630    4296    3130    5295
CTETRA      1126       2     283     294    2657    2831     625    5172+
+           4093    4096    4089    4009
CTETRA      1127       2    2672    2669    2673    2621    3098    3101+
+           3324    4481    3104    3103
CTETRA      1128       2    1525    1536    1535    2624    1799    1798+
+           1797    5297    3437    5298
CTETRA      1129       2    1521    2623    2631    2621    2928    2961+
+           4228    2929    2931    2963
CTETRA      1130       2    1521    1522    2622    2621    1758    2945+
+           2926    2929    2946    2930
CTETRA      1131       2    1524    1525    1535    2624    1767    1797+
+           1796    4533    5297    5298
CTETRA      1132       2    1535    2622    2624    2751    4270    2953+
+           5298    4271    4268    3439
CTETRA      1133       2    1523    1524    2622    2619    1764    5299+
+           4547    4548    4534    2944
CTETRA      1134       2    1536    2749    1547    2750    3427    5246+
+           1830    3429    3428    5300
CTETRA      1135       2    1533    2626    2622    2750    5301    2937+
+           5123    5125    4267    4266
CTETRA      1136       2    1522    1533    1532    2622    1790    1789+
+           1788    2945    5123    5302
CTETRA      1137       2    1571    1572    1582    2790    1900    1930+
+           1929    3795    3786    3657
CTETRA      1138       2     506    2845    2867    2846    4151    4594+
+           4593    4153    4152    4614
CTETRA      1139       2     504     505    2845    2867    1219    4591+
+           5303    5304    4592    4594
CTETRA      1140       2    2608    2740    2604    2610    3396    5305+
+           3404    2890    4853    3403
CTETRA      1141       2    1555    1556    2837    2786    1854    4056+
+           4631    4634    3625    4057
CTETRA      1142       2    2603    2854    2606    2731    5239    4238+
+           3462    3460    4239    3461
CTETRA      1143       2    2511    2607    2608    2873    4916    3407+
+           5306    4917    4910    5307
CTETRA      1144       2    2511    2608    2740    2873    5306    3396+
+           5308    4917    5307    4904
CTETRA      1145       2     137    2604    2740    2610    5309    5305+
+           4851    4852    3403    4853
CTETRA      1146       2      83    2603     533    2604    5310    3464+
+           1381    4878    2878    3463
CTETRA      1147       2      83     543    2603    2604    1405    3409+
+           5310    4878    3410    2878
CTETRA      1148       2    2264    2819    2271    2827    3868    5311+
+           2340    5312    5313    5314
CTETRA      1149       2    2268    2275    2819    2827    2352    5315+
+           5316    5317    5318    5313
CTETRA      1150       2    2271    2819    2272    2871    5311    5319+
+           2341    5320    5321    5322
CTETRA      1151       2    2268    2818    2821    2827    5323    5324+
+           5325    5317    5326    5327
CTETRA      1152       2    2264    2818    2819    2827    3866    3869+
+           3868    5312    5326    5313
CTETRA      1153       2    2264    2821    2818    2827    3877    5324+
+           3866    5312    5327    5326
CTETRA      1154       2    2257    2818    2264    2821    5328    3866+
+           2315    5329    5324    3877
CTETRA      1155       2      86     521     510    2847    1410    1266+
+           1411    5330    5331    4600
CTETRA      1156       2    2261    2821    2818    2876    5332    5324+
+           5333    5334    5335    5336
CTETRA      1157       2    2257    2258    2818    2876    2320    5337+
+           5328    5338    5339    5336
CTETRA      1158       2     246     247    2260    2544     254    2502+
+           2505    2546    2547    5340
CTETRA      1159       2      62    1498      63    2798    2212    2213+
+             65    5341    4574    5342
CTETRA      1160       2    1497    2798    1498    2748    4563    4574+
+           1692    4564    4566    4576
CTETRA      1161       2    2746    2798    2743    2748    4178    3692+
+           4177    4573    4566    4565
CTETRA      1162       2       3    2849    2798    2789    4478    4174+
+           5343    4839    4175    3691
CTETRA      1163       2    1506    2747    1507    2671    5121    5344+
+           1717    5122    4526    5345
CTETRA      1164       2    2742    2769    2797    2745    3529    3706+
+           3710    3414    4181    3717
CTETRA      1165       2    1571    1582    1581    2790    1929    1928+
+           1927    3795    3657    3656
CTETRA      1166       2     363     374     373    2656     851     850+
+            849    5221    3052    3046
CTETRA      1167       2      62      63    2849    2798      65    4477+
+           4378    5341    5342    4174
CTETRA      1168       2     462    2698     463    2865    5346    4694+
+           1101    5347    4693    4692
CTETRA      1169       2     463     464    2865    2699    1104    5013+
+           4692    4695    5348    4696
CTETRA      1170       2     461    2698     462    2865    5207    5346+
+           1098    5208    4693    5347
CTETRA      1171       2    1505    2674    2848    2667    5349    5258+
+           5350    5033    5202    5257
CTETRA      1172       2     460    2698     461    2697    5351    5207+
+           1095    5352    3171    5206
CTETRA      1173       2     459    2698     460    2697    5120    5351+
+           1092    5118    3171    5352
CTETRA      1174       2     465    2865    2695    2649    5117    4703+
+           4699    5353    5204    5203
CTETRA      1175       2     458    2697    2695    2696    4932    3170+
+           3175    3178    3173    3169
CTETRA      1176       2     469     470    2864    2697    1120    5354+
+           5091    5355    5356    4947
CTETRA      1177       2     457    2695     458    2712    3176    3175+
+           1086    5357    4931    4930
CTETRA      1178       2     456    2695     457    2712    5358    3176+
+           1083    5359    4931    5357
CTETRA      1179       2    2620    2673    2727    2669    3100    3336+
+           4542    3102    3101    4525
CTETRA      1180       2    1511    2619    1522    2621    4538    2943+
+           1759    3329    2924    2946
CTETRA      1181       2    1510    2672    2673    2621    3325    3324+
+           3326    3328    4481    3103
CTETRA      1182       2    1502    1503    1513    2727    1705    1735+
+           1734    5360    5361    5362
CTETRA      1183       2     388    2645     389    2828    5182    4721+
+            893    4713    4723    4716
CTETRA      1184       2    1511    2673    2620    2621    3327    3100+
+           4537    3329    3103    2925
CTETRA      1185       2    2620    2727    2668    2669    4542    4372+
+           3580    3102    4525    3085
CTETRA      1186       2    1508    1509    1519    2671    1723    1753+
+           1752    5363    4568    5364
CTETRA      1187       2    2764    2616    2765    2783    5157    5163+
+           3507    5158    4140    4451
CTETRA      1188       2    1650    2663    1651    2781    5365    3610+
+           2123    5366    3609    3608
CTETRA      1189       2     183    2781    1651    2664    5367    3608+
+           2180    5368    3612    3611
CTETRA      1190       2     183    2781    2780    2782    5367    3586+
+           5369    5370    3590    3589
CTETRA      1191       2     186    2693     187    2779    3152    3151+
+            199    3602    4132    5371
CTETRA      1192       2    1649    2663    1650    2781    3614    5365+
+           2120    3615    3609    5366
CTETRA      1193       2    1596    1607    1606    2872    2000    1999+
+           1998    5021    5008    5019
CTETRA      1194       2     187    2693    2860    2615    3151    5372+
+           5373    5282    5374    5375
CTETRA      1195       2     168     183    2780    2782    2583    5369+
+           5376    5377    5370    3589
CTETRA      1196       2     183     184    2781    2782     202    3617+
+           5367    5370    3618    3590
CTETRA      1197       2     407     408    2823    2825     946    3909+
+           4331    4334    3910    3906
CTETRA      1198       2     394    2652     395    2811    3816    3945+
+            909    3818    3817    3944
CTETRA      1199       2     412     413    2826    2814     959    4739+
+           5112    5378    5379    4733
CTETRA      1200       2     408     409    2824    2825     949    5380+
+           3908    3910    4259    3907
CTETRA      1201       2    2645    2659    2652    2828    5196    3893+
+           5035    4723    4707    5180
CTETRA      1202       2     258     259     269    2762     546     545+
+            544    4060    3495    3969
CTETRA      1203       2     399     400    2816    2828     924    4720+
+           4327    4325    4718    4326
CTETRA      1204       2     391    2816    2813    2812    3845    4719+
+           3827    3829    3846    3825
CTETRA      1205       2      96     400    2813    2816    1431    4715+
+           5381    5382    4720    4719
CTETRA      1206       2    1576    2794    2795    2862    4427    4796+
+           5073    4428    4423    4432
CTETRA      1207       2      96    2813     390    2816    5381    4743+
+           1355    5382    4719    5383
CTETRA      1208       2     390    2813     391    2816    4743    3827+
+            897    5383    4719    3845
CTETRA      1209       2     402    2814    2816    2812    3841    4731+
+           3844    3842    3834    3846
CTETRA      1210       2     414     415    2725    2814     965    3888+
+           3881    4738    4741    4734
CTETRA      1211       2    2856    2661    2662    2830    4278    3069+
+           4483    4276    4281    4289
CTETRA      1212       2     285    2676     286    2684    5384    5385+
+            602    5386    5292    5387
CTETRA      1213       2     307    2685     308    2838    5388    5389+
+            664    5390    5059    5391
CTETRA      1214       2     306    2685     307    2838    5392    5388+
+            661    5393    5059    5390
CTETRA      1215       2     106    2679     301    2682    3476    4726+
+           1450    3477    3124    3481
CTETRA      1216       2     298    2680    2681    2687    5394    3122+
+           5395    5396    5397    4304
CTETRA      1217       2     309    2838    2685    2681    5398    5059+
+           5399    5400    5401    4302
CTETRA      1218       2     305    2810    2685    2736    4087    4307+
+           4297    4983    3809    5058
CTETRA      1219       2     305    2685    2810    2831    4297    4307+
+           4087    4090    4299    4010
CTETRA      1220       2     300    2755    2681    2682    3479    3483+
+           4724    3480    3482    3126
CTETRA      1221       2    2838    2681    2717    2686    5401    4730+
+           4086    4073    4303    4085
CTETRA      1222       2    2735    2718    2686    2738    3454    4305+
+           3368    4308    3450    4075
CTETRA      1223       2     305    2685    2838    2736    4297    5059+
+           4984    4983    5058    4071
CTETRA      1224       2     305    2838     306    2809    4984    5393+
+            658    4982    4082    5402
CTETRA      1225       2    2268    2819    2818    2827    5316    3869+
+           5323    5317    5313    5326
CTETRA      1226       2    2544    2545    2870    2876    2552    5403+
+           5404    5405    5406    5407
CTETRA      1227       2    1600    1601    1611    2852    1981    2011+
+           2010    4584    4585    4520
CTETRA      1228       2    2261    2268    2818    2821    2331    5323+
+           5333    5332    5325    5324
CTETRA      1229       2     142    2515      14    2756    5408    2532+
+           2566    5409    5410    5411
CTETRA      1230       2      14    2515      15    2756    2532    2531+
+             24    5411    5410    5412
CTETRA      1231       2      15    2512      16    2874    2518    2517+
+             19    5413    5414    5415
CTETRA      1232       2      15    2756    2512    2874    5412    5416+
+           2518    5413    5417    5414
CTETRA      1233       2     144    2756      15    2874    4363    5412+
+           2563    5418    5417    5413
CTETRA      1234       2     142    2739    2756    2757    5419    4354+
+           5409    5420    4357    3467
CTETRA      1235       2    2612    2739    2757    2609    4231    4357+
+           4347    2898    4356    3469
CTETRA      1236       2    2512    2739    2608    2756    5421    4355+
+           5422    5416    4354    4351
CTETRA      1237       2      53    1597      54    2794    2194    2195+
+             74    5423    5424    5070
CTETRA      1238       2    1610    1621    2633    2638    2038    5425+
+           4515    4518    5426    4519
CTETRA      1239       2    1577    2795    2863    2862    4789    4431+
+           4791    5072    4432    4433
CTETRA      1240       2    1633    1634    2635    2634    2074    4496+
+           4499    2987    5427    2973
CTETRA      1241       2    1636    1637    2856    2830    2083    4279+
+           4272    4275    4280    4276
CTETRA      1242       2    2637    2633    2772    2771    3538    4891+
+           4508    3539    3540    3546
CTETRA      1243       2    2637    2772    2633    2638    4508    4891+
+           3538    2980    4509    4519
CTETRA      1244       2    1636    2637    2856    2636    4274    4273+
+           4272    5428    2978    4484
CTETRA      1245       2    1635    1636    2856    2636    2080    4272+
+           5429    5165    5428    4484
CTETRA      1246       2     105    2670     291    2734    4020    3088+
+           1337    4021    3380    3379
CTETRA      1247       2     298    2681    2685    2687    5395    4302+
+           5430    5396    4304    3134
CTETRA      1248       2    2716    2706    2718    2738    3455    3252+
+           3257    3806    3451    3450
CTETRA      1249       2     311    2717    2681    2755    3272    4730+
+           5431    3457    3456    3483
CTETRA      1250       2    2717    2686    2718    2738    4085    4305+
+           3253    3449    4075    3450
CTETRA      1251       2     322    2705    2717    2707    4773    3260+
+           4340    4342    3200    3254
CTETRA      1252       2     320    2717     321    2705    4770    3273+
+            701    4771    3260    4772
CTETRA      1253       2     309     319    2838    2839     697    5432+
+           5398    5433    5434    4076
CTETRA      1254       2     309     320    2839    2717     699    4769+
+           5433    5435    4770    4295
CTETRA      1255       2     470     471    2864    2697    1123    5436+
+           5354    5356    5437    4947
CTETRA      1256       2     468     469    2711    2712    1117    5092+
+           3225    3228    5093    3229
CTETRA      1257       2      90    2695     456    2712    5438    5358+
+           1367    5439    4931    5359
CTETRA      1258       2     465     475    2865    2649    1137    5440+
+           5117    5353    4939    5204
CTETRA      1259       2     503     504    2845    2867    1216    5303+
+           4823    5441    5304    4594
CTETRA      1260       2     447     458     457    2696    1087    1086+
+           1085    4811    3178    3177
CTETRA      1261       2      90      91     445    2695     127    1365+
+           1366    5438    3163    3165
CTETRA      1262       2      90     466      91    2695    1419    1420+
+            127    5438    4702    3163
CTETRA      1263       2     466    2695    2712    2649    4702    4931+
+           4704    3015    5203    4706
CTETRA      1264       2     473     474    2864    2865    1132    5442+
+           4556    4559    5014    4560
CTETRA      1265       2      89     477      90    2712    1417    1418+
+            128    4936    4705    5439
CTETRA      1266       2     474     475    2864    2865    1135    5082+
+           5442    5014    5440    4560
CTETRA      1267       2     476     477    2711    2649    1141    4935+
+           4937    3017    3016    4940
CTETRA      1268       2     475    2711    2864    2649    4938    5083+
+           5082    4939    4940    5443
CTETRA      1269       2     322     333    2705    2707     736    4343+
+           4773    4342    3242    3200
CTETRA      1270       2     102     334     103    2715    1443    1444+
+            115    5444    3245    3244
CTETRA      1271       2     320     330    2839    2705     728    5445+
+           4769    4771    4768    4339
CTETRA      1272       2     311     322    2717    2718     705    4340+
+           3272    3458    4341    3253
CTETRA      1273       2    2840    2839    2708    2706    4077    5446+
+           5447    4083    4306    3204
CTETRA      1274       2     319     320     330    2839     698     728+
+            727    5434    4769    5445
CTETRA      1275       2     309    2838    2681    2717    5398    5401+
+           5400    5435    4086    4730
CTETRA      1276       2    2843    2632    2635    2662    5448    2970+
+           5166    4491    4287    4486
CTETRA      1277       2    1621    2638    1622    2634    5426    5449+
+           2040    5450    2982    2986
CTETRA      1278       2    1631    1642    2843    2635    2097    4216+
+           5451    2975    5452    5166
CTETRA      1279       2    1642    2843    2635    2614    4216    5166+
+           5452    2908    4217    4222
CTETRA      1280       2     182    2780     183    2664    5453    5369+
+            203    3593    5096    5368
CTETRA      1281       2      48    2613    1652    2843    5454    3591+
+           2184    5455    4134    4133
CTETRA      1282       2       5     182    2613    2780     204    3592+
+           5456    5457    5453    4925
CTETRA      1283       2      49    1631    2843    2632    2158    5451+
+           5458    5174    2976    5448
CTETRA      1284       2     183    2780    2781    2664    5369    3586+
+           5367    5368    5096    3612
CTETRA      1285       2    2645    2652    2813    2828    5035    3822+
+           4722    4723    5180    4717
CTETRA      1286       2    2645    2813    2652    2647    4722    3822+
+           5035    3007    3824    3823
CTETRA      1287       2     161     191     190    2616    2598     195+
+           2597    5459    2915    2911
CTETRA      1288       2    2652    2822    2811    2828    3895    3940+
+           3817    5180    3931    3951
CTETRA      1289       2     136       1       8    2740    2579      20+
+           2578    4901    4900    5460
CTETRA      1290       2     138       9    2516    2740    2575    2539+
+           3391    3394    5461    3395
CTETRA      1291       2     138    2608    2516    2741    3393    3392+
+           3391    3398    3397    4861
CTETRA      1292       2     136     137    2604    2740     157    5309+
+           4880    4901    4851    5305
CTETRA      1293       2    2511    2608    2516    2740    5306    3392+
+           2542    5308    3396    3395
CTETRA      1294       2       8    2516       9    2740    2543    2539+
+             30    5460    3395    5461
CTETRA      1295       2     432     443     442    2726    1046    1045+
+           1044    4819    3858    5134
CTETRA      1296       2     430     441     440    2726    1040    1039+
+           1038    3312    3865    4816
CTETRA      1297       2     433     444     443    2833    1049    1048+
+           1047    5186    5132    4818
CTETRA      1298       2     494     505     504    2867    1220    1219+
+           1218    4972    4592    5304
CTETRA      1299       2     423     424    2722    2820     990    3871+
+           5188    5462    3873    3872
CTETRA      1300       2    1533    2784    2626    2750    5463    4261+
+           5301    5125    3621    4267
CTETRA      1301       2    2624    2749    2751    2630    3438    3431+
+           3439    3436    4254    3446
CTETRA      1302       2    1528    2624    2629    2630    5251    2960+
+           5254    5252    3436    2952
CTETRA      1303       2    1545    2750    1546    2785    5464    5465+
+           1826    3627    3624    5466
CTETRA      1304       2    1549    2806    2749    2776    5244    5149+
+           5467    5141    5152    5151
CTETRA      1305       2    1547    2749    2806    2785    5246    5149+
+           4635    4637    3623    4638
CTETRA      1306       2    1548    2749    1549    2806    5245    5467+
+           1835    5468    5149    5244
CTETRA      1307       2    1547    2749    1548    2806    5246    5245+
+           1832    4635    5149    5468
CTETRA      1308       2    1501    2777    1502    2727    5469    3575+
+           1702    5470    3564    5360
CTETRA      1309       2    1496    2743    1497    2747    5471    4562+
+           1688    5472    4873    4849
CTETRA      1310       2    1500    2777    1501    2727    5028    5469+
+           1699    5259    3564    5470
CTETRA      1311       2    1489    2768    1490    2777    4374    5209+
+           1660    4376    4375    5060
CTETRA      1312       2    1492    2742    2848    2768    5473    4875+
+           5474    5475    4187    4172
CTETRA      1313       2    1481    2742    1492    2768    5476    5473+
+           1669    3522    4187    5475
CTETRA      1314       2    2768    2668    2777    2744    4171    3579+
+           4375    4167    3562    4530
CTETRA      1315       2    1612    1623    1622    2638    2044    2043+
+           2042    4523    2983    5449
CTETRA      1316       2    2680    2692    2760    2682    3976    3975+
+           3489    3125    3474    3492
CTETRA      1317       2     105     301    2679    2755    1449    4726+
+           4019    4728    3478    3484
CTETRA      1318       2     308     309     319    2838     667     697+
+            696    5391    5398    5432
CTETRA      1319       2    2840    2719    2809    2706    5477    5478+
+           4081    4083    5479    4084
CTETRA      1320       2     289     300    2680    2682     643    4725+
+           3488    3491    3480    3125
CTETRA      1321       2     142      13    2515    2739    2567    2533+
+           5408    5419    3387    5480
CTETRA      1322       2     105     106     280    2670     112    1335+
+           1336    4020    3962    3966
CTETRA      1323       2      12    2515      13    2739    2536    2533+
+             27    3386    5480    3387
CTETRA      1324       2      12    2514    2739    2741    2534    5481+
+           3386    4854    4857    4855
CTETRA      1325       2    2512    2514    2608    2739    2529    5482+
+           5422    5421    5481    4355
CTETRA      1326       2     541    2611     542    2610    5483    2896+
+           1324    5484    2895    2894
CTETRA      1327       2    2512    2608    2607    2756    5422    3407+
+           5485    5416    4351    4350
CTETRA      1328       2     139    2741     140    2610    5229    3405+
+            154    5230    3400    3389
CTETRA      1329       2    2739    2756    2757    2609    4354    3467+
+           4357    4356    3468    3469
CTETRA      1330       2    2511    2512    2608    2607    2527    5422+
+           5306    4916    5485    3407
CTETRA      1331       2    2608    2741    2610    2609    3397    3400+
+           2890    2888    3406    2889
CTETRA      1332       2     328    2719    2714    2640    3275    5486+
+           3266    3268    3277    3269
CTETRA      1333       2    2714    2703    2643    2642    3235    3210+
+           3261    3264    3230    3001
CTETRA      1334       2    2713    2714    2719    2703    3233    5486+
+           5487    3234    3235    5488
CTETRA      1335       2    2714    2709    2643    2703    3232    3209+
+           3261    3235    3211    3210
CTETRA      1336       2     324    2715    2720    2642    4762    4337+
+           3607    3004    3240    4338
CTETRA      1337       2    2719    2720    2706    2642    4760    4336+
+           5479    4761    4338    3241
CTETRA      1338       2    1630    2632    1641    2770    3993    5274+
+           2096    3531    3994    5276
CTETRA      1339       2    2294    2295    2302    2767    2404    2425+
+           2424    5489    3515    5490
CTETRA      1340       2    2298    2299    2754    2767    2414    3541+
+           5491    5492    5493    5494
CTETRA      1341       2    2293    2759    2294    2767    5495    5496+
+           2401    5497    3950    5489
CTETRA      1342       2    2292    2759    2293    2767    5498    5495+
+           2398    5499    3950    5497
CTETRA      1343       2     370    2660     371    2646    5271    3057+
+            841    5273    5272    3012
CTETRA      1344       2    2653    2645    2651    2646    5025    3024+
+           3066    3065    3005    3025
CTETRA      1345       2     476     477     487    2711    1141    1171+
+           1170    4937    4935    5090
CTETRA      1346       2     357    2859     358    2660    5049    5051+
+            804    5050    4391    5052
CTETRA      1347       2     357     368    2653    2660     833    5026+
+           5269    5050    5500    4380
CTETRA      1348       2    2858    2859    2660    2841    5048    4391+
+           4379    4382    4393    4383
CTETRA      1349       2     336     337    2641    2640     745    4658+
+           2993    2991    4659    2992
CTETRA      1350       2      88      89     467    2711     129    1369+
+           1370    4621    4934    3226
CTETRA      1351       2     520    2847    2729    2733    4605    4609+
+           4608    5501    4162    3355
CTETRA      1352       2    2732    2729    2847    2733    3352    4609+
+           4827    3356    3355    4162
CTETRA      1353       2     511     512    2869    2847    1238    5502+
+           5503    4834    4828    4606
CTETRA      1354       2    2732    2855    2869    2731    4243    4672+
+           5504    4241    4244    4674
CTETRA      1355       2    2732    2869    2847    2729    5504    4606+
+           4827    3352    4610    4609
CTETRA      1356       2      85    2869     521    2847    5505    5506+
+           1409    5507    4606    5331
CTETRA      1357       2      85     511    2869    2847    1377    5503+
+           5505    5507    4834    4606
CTETRA      1358       2     106     301     290    2682    1450     646+
+           1451    3477    3481    3980
CTETRA      1359       2    1627    1628    2637    2771    2058    3995+
+           4283    3545    4590    3539
CTETRA      1360       2    1631    2843    2632    2635    5451    5448+
+           2976    2975    5166    2970
CTETRA      1361       2    1641    1652    1651    2663    2127    2126+
+           2125    5275    5277    3610
CTETRA      1362       2    1610    2852    1611    2638    4517    4520+
+           2009    4518    4514    4522
CTETRA      1363       2    1627    2637    2772    2771    4283    4508+
+           3542    3545    3539    3546
CTETRA      1364       2      49    2843    1641    2632    5458    5508+
+           2186    5174    5448    5274
CTETRA      1365       2    2772    2773    2633    2852    3548    4897+
+           4891    4198    4200    4516
CTETRA      1366       2    1641    2843    1652    2663    5508    4133+
+           2127    5275    4490    5277
CTETRA      1367       2    1635    2856    2665    2636    5429    4482+
+           5164    5165    4484    4498
CTETRA      1368       2    2637    2633    2632    2634    3538    2965+
+           4288    2981    2969    2968
CTETRA      1369       2     283    2676    2684    2678    3114    5292+
+           4095    3571    3570    4459
CTETRA      1370       2     261    2857     262    2778    4322    4899+
+            558    4323    4319    4966
CTETRA      1371       2     272    2678    2761    2778    5509    4067+
+           5223    5224    3574    4312
CTETRA      1372       2    2679    2680    2684    2687    3121    3321+
+           4091    4098    5397    3133
CTETRA      1373       2    1615    1616    2772    2774    2024    3543+
+           4192    4195    3552    3549
CTETRA      1374       2    1612    2852    1613    2638    4521    4511+
+           2015    4523    4514    4513
CTETRA      1375       2    1613    1614    2772    2851    2018    4893+
+           4512    4588    4894    4193
CTETRA      1376       2     485     496     495    2868    1195    1194+
+           1193    4599    4961    4968
CTETRA      1377       2     141    2739     142    2757    3385    5419+
+            152    4345    4357    5420
CTETRA      1378       2     142    2756     143    2757    5409    4362+
+            151    5420    3467    4364
CTETRA      1379       2     145    2874     146    2606    5510    5511+
+            148    5512    5513    3092
CTETRA      1380       2    2612    2853    2606    2757    4666    4233+
+           2900    4347    4236    3466
CTETRA      1381       2     138    2740    2608    2610    3394    3396+
+           3393    3399    4853    2890
CTETRA      1382       2    2612    2606    2731    2605    2900    3461+
+           3401    2901    2886    3402
CTETRA      1383       2    2512    2607    2513    2874    5485    4907+
+           2524    5414    4906    4905
CTETRA      1384       2     144    2756    2874    2606    4363    5417+
+           5418    4662    3465    5513
CTETRA      1385       2    2608    2604    2607    2605    3404    2885+
+           3407    2891    2882    2887
CTETRA      1386       2     491     492     502    2867    1182    1212+
+           1211    4970    4977    4832
CTETRA      1387       2     322    2718     323    2707    4341    3256+
+            707    4342    3255    3259
CTETRA      1388       2     344    2704     345    2710    5514    4765+
+            769    3653    3216    3654
CTETRA      1389       2    2752    2714    2709    2643    4643    3232+
+           4401    4403    3261    3209
CTETRA      1390       2     420     421    2721    2824     983    3919+
+           3311    4335    3920    3921
CTETRA      1391       2    1596    2794    1597    2872    5515    5424+
+           1971    5021    5003    5516
CTETRA      1392       2     418    2823     419    2725    5517    5518+
+            977    5519    5104    3306
CTETRA      1393       2     417    2823     418    2725    5520    5517+
+            974    3887    5104    5519
CTETRA      1394       2     422    2826    2721    2824    3916    3923+
+           3918    3917    3915    3921
CTETRA      1395       2     416    2823     417    2725    5521    5520+
+            971    3886    5104    3887
CTETRA      1396       2     415    2823     416    2725    4249    5521+
+            968    3888    5104    3886
CTETRA      1397       2      94     433     422    2721    1426    1018+
+           1427    5116    3283    3918
CTETRA      1398       2     401    2826    2816    2814    5109    3912+
+           5108    5522    4733    4731
CTETRA      1399       2     419    2725    2823    2824    3306    5104+
+           5518    5105    3924    3903
CTETRA      1400       2     413     414    2826    2814     962    4736+
+           4739    5379    4738    4733
CTETRA      1401       2     412    2826     413    2820    5112    4739+
+            959    5113    4737    4740
CTETRA      1402       2    1638    1639    2663    2830    2089    3988+
+           4292    4294    3989    3991
CTETRA      1403       2    2844    2665    2856    2661    4137    4482+
+           5523    4138    4136    4278
CTETRA      1404       2     189    1646    2615    2617    2169    4212+
+           4214    4215    4213    2913
CTETRA      1405       2    1628    2770    2637    2771    3996    3536+
+           3995    4590    3535    3539
CTETRA      1406       2    2779    2781    2780    2664    3587    3586+
+           3585    5095    3612    5096
CTETRA      1407       2     187    2693    2615    2779    3151    5374+
+           5282    5371    4132    4780
CTETRA      1408       2    1625    2637    1636    2636    4503    4274+
+           2081    4505    2978    5428
CTETRA      1409       2    1634    2665    1645    2635    4494    5285+
+           2106    4496    4495    4224
CTETRA      1410       2    1622    2638    1623    2634    5449    2983+
+           2043    2986    2982    2985
CTETRA      1411       2    1620    1631    2632    2634    2066    2976+
+           2964    2967    2977    2968
CTETRA      1412       2    1637    1638    2661    2830    2086    4293+
+           4277    4280    4294    4281
CTETRA      1413       2     186    2661    1649    2781    5101    3613+
+           2175    3604    3616    3615
CTETRA      1414       2       6    2764    2780    2616    5155    4918+
+           5156    5160    5157    4924
CTETRA      1415       2    2860    2765    2615    2842    4416    4450+
+           5375    4448    4447    4449
CTETRA      1416       2    2661    2663    2781    2664    3071    3609+
+           3616    3072    3074    3612
CTETRA      1417       2    2693    2615    2779    2842    5374    4780+
+           4132    4129    4449    4147
CTETRA      1418       2     167     168    2801    2782     173    5524+
+           5525    5526    5377    4126
CTETRA      1419       2    1623    2638    1624    2636    2983    4506+
+           2046    2984    2979    4504
CTETRA      1420       2     318    2838     319    2840    5527    5432+
+            695    5528    4078    5529
CTETRA      1421       2    2810    2736    2734    2686    3809    3371+
+           3810    4099    4072    3367
CTETRA      1422       2    2716    2720    2809    2737    3814    4757+
+           3805    3801    3815    3802
CTETRA      1423       2    2735    2737    2716    2738    3376    3801+
+           3807    4308    3373    3806
CTETRA      1424       2     304    2810     305    2736    5530    4087+
+            655    5531    3809    4983
CTETRA      1425       2    2716    2809    2706    2738    3805    4084+
+           3455    3806    3804    3451
CTETRA      1426       2    2840    2708    2719    2706    5447    5532+
+           5477    4083    3204    5479
CTETRA      1427       2    2645    2654    2651    2659    5181    3891+
+           3024    5196    3890    3050
CTETRA      1428       2     383     384    2652    2648     878    3029+
+           5533    5534    3027    3030
CTETRA      1429       2     382     383    2652    2648     875    5533+
+           5197    3014    5534    3030
CTETRA      1430       2      99     367    2858    2653    1437    5216+
+           5535    5536    5217    4381
CTETRA      1431       2     367    2653     378    2655    5217    5178+
+            863    5218    3033    5177
CTETRA      1432       2     382    2652    2647    2648    5197    3823+
+           4742    3014    3030    3010
CTETRA      1433       2     368     379    2645    2646     864    4752+
+           5024    5027    4860    3005
CTETRA      1434       2    1620    1621    1631    2634    2037    2067+
+           2066    2967    5450    2977
CTETRA      1435       2    2653    2660    2658    2841    4380    4390+
+           4385    4384    4383    4387
CTETRA      1436       2     371    2646    2650    2648    3012    3068+
+           3060    3013    3009    3022
CTETRA      1437       2    2653    2651    2658    2650    3066    3044+
+           4385    3067    3019    3064
CTETRA      1438       2      97     400     389    2813    1432     925+
+           1433    5537    4715    4714
CTETRA      1439       2     289    2760     290    2682    3490    3977+
+            614    3491    3492    3980
CTETRA      1440       2    2679    2810    2670    2734    4007    5170+
+           4014    3363    3810    3380
CTETRA      1441       2     281    2657    2670    2829    3037    4015+
+           3086    3968    4064    3965
CTETRA      1442       2     300     311    2681    2755     674    5431+
+           4724    3479    3457    3483
CTETRA      1443       2     104    2735    2716    2718    3377    3807+
+           3447    3448    3454    3257
CTETRA      1444       2    2717    2755    2718    2686    3456    3459+
+           3253    4085    4301    4305
CTETRA      1445       2     106     290    2758    2682    1451    3979+
+           3475    3477    3980    3473
CTETRA      1446       2     106     280    2670    2829    1335    3966+
+           3962    3964    3967    3965
CTETRA      1447       2    2803    2762    2761    2690    4066    3494+
+           4068    3746    4926    4309
CTETRA      1448       2    2764    2690    2765    2763    4783    4782+
+           3507    3504    5154    3509
CTETRA      1449       2     259    2761     270    2762    3493    5538+
+            548    3495    3494    3970
CTETRA      1450       2     295    2684    2685    2831    5168    3130+
+           4296    4298    4097    4299
CTETRA      1451       2    1638    1639    1649    2663    2089    2119+
+           2118    4292    3988    3614
CTETRA      1452       2     270    2761     271    2678    5538    5539+
+            551    3118    4067    3119
CTETRA      1453       2    2688    2676    2690    2689    3157    3141+
+           4414    3140    3158    3160
CTETRA      1454       2     260     261    2761    2765     554    4320+
+           5540    5541    5542    4785
CTETRA      1455       2     229    2769     230    2766    4184    5191+
+            236    4185    3530    3527
CTETRA      1456       2    1495    2747    1506    2667    4871    5121+
+           1715    5031    4527    5032
CTETRA      1457       2     341    2713    2708    2709    5543    5544+
+           5545    5546    3231    3236
CTETRA      1458       2     339    2713    2752    2714    5547    5548+
+           5263    4656    3233    4643
CTETRA      1459       2    2713    2752    2714    2709    5548    4643+
+           3233    3231    4401    3232
CTETRA      1460       2     103    2716     313    2715    3248    3811+
+           1341    3244    3249    4758
CTETRA      1461       2    2719    2714    2640    2642    5486    3269+
+           3277    4761    3264    2995
CTETRA      1462       2     334    2707    2715    2703    3207    3247+
+           3245    3192    3203    3238
CTETRA      1463       2     331    2708    2705    2704    4766    3205+
+           3220    3222    3237    3223
CTETRA      1464       2     331     342    2709    2704     761    3217+
+           5549    3222    3218    3212
CTETRA      1465       2    2840    2713    2719    2708    5550    5487+
+           5477    5447    5544    5532
CTETRA      1466       2     331    2709    2708    2704    5549    3236+
+           4766    3222    3212    3237
CTETRA      1467       2    2713    2719    2708    2703    5487    5532+
+           5544    3234    5488    3206
CTETRA      1468       2    2653    2660    2646    2650    4380    5272+
+           3065    3067    3061    3068
CTETRA      1469       2     342     353    2709    2710     792    5551+
+           3217    3219    5552    3214
CTETRA      1470       2     343    2704     344    2710    5553    5514+
+            766    5554    3216    3653
CTETRA      1471       2     363     373    2658    2656     849    3045+
+           5219    5221    3046    3048
CTETRA      1472       2     360    2658     361    2650    5261    5045+
+            813    3059    3064    5555
CTETRA      1473       2     350    2832     361    2859    4648    5043+
+            814    5039    4651    5046
CTETRA      1474       2    2832    2815    2658    2841    4103    5222+
+           5044    4113    4115    4387
CTETRA      1475       2     362    2832     363    2658    5262    4013+
+            819    3062    5044    5219
CTETRA      1476       2     373     374    2651    2656     850    3051+
+           3020    3046    3052    3047
CTETRA      1477       2     371    2646    2660    2650    3012    5272+
+           3057    3060    3068    3061
CTETRA      1478       2     372    2650     373    2648    5029    3018+
+            847    5030    3022    3021
CTETRA      1479       2     360    2660    2658    2650    3058    4390+
+           5261    3059    3061    3064
CTETRA      1480       2    1632    1633    1643    2635    2071    2101+
+           2100    4500    4499    4218
CTETRA      1481       2     509    2847     520    2733    4160    4605+
+           1263    4161    4162    5501
CTETRA      1482       2     513     514    2847    2836    1244    4687+
+           4686    4830    4826    4831
CTETRA      1483       2     518     519    2729    2733    1259    5556+
+           3361    3362    5557    3355
CTETRA      1484       2     514    2847    2845    2855    4687    4604+
+           4682    4684    4689    4685
CTETRA      1485       2     519     520    2729    2733    1262    4608+
+           5556    5557    5501    3355
CTETRA      1486       2     509    2835    2847    2846    4601    4603+
+           4160    4158    4620    4159
CTETRA      1487       2      86    2847     510    2835    5330    4600+
+           1411    5558    4603    4602
CTETRA      1488       2     526    2732    2730    2855    4680    3360+
+           4668    4667    4243    4242
CTETRA      1489       2      86     500    2847    2835    1375    4836+
+           5330    5558    4837    4603
CTETRA      1490       2     500    2835     501    2836    4837    4033+
+           1207    4838    4036    4035
CTETRA      1491       2     512     522    2869    2855    1268    5559+
+           5502    5560    5561    4672
CTETRA      1492       2     522     523    2854    2855    1269    4676+
+           5562    5561    4677    4663
CTETRA      1493       2     512    2847     513    2855    4828    4686+
+           1241    5560    4689    4688
CTETRA      1494       2    2809    2719    2720    2706    5478    4760+
+           4757    4084    5479    4336
CTETRA      1495       2     309    2681     310    2717    5400    5563+
+            670    5435    4730    3271
CTETRA      1496       2     288    2683     289    2680    3129    5564+
+            611    5565    3322    3488
CTETRA      1497       2     104     302    2737    2734    1339    4979+
+           3375    3378    4980    3370
CTETRA      1498       2     161     190    2765    2616    2597    5286+
+           5566    5459    2911    5163
CTETRA      1499       2    2758    2829    2670    2692    3960    3965+
+           3963    3470    4004    4016
CTETRA      1500       2     306    2838     317    2809    5393    5567+
+            690    5402    4082    5568
CTETRA      1501       2    2735    2686    2734    2738    3368    3367+
+           3364    4308    4075    3374
CTETRA      1502       2     281    2657     292    2670    3037    3039+
+            619    3086    4015    3087
CTETRA      1503       2     281    2678    2657    2829    3120    4458+
+           3037    3968    4002    4064
CTETRA      1504       2     295     306     305    2685     659     658+
+            657    4296    5392    4297
CTETRA      1505       2     283    2676     284    2684    3114    3113+
+            596    4095    5292    5167
CTETRA      1506       2     303    2810     304    2736    3808    5530+
+            652    3382    3809    5531
CTETRA      1507       2     282    2678     283    2657    5569    3571+
+            593    3038    4458    4093
CTETRA      1508       2      86      87     489    2835     131    1373+
+           1374    5558    5213    5570
CTETRA      1509       2     496     507     506    2846    1226    1225+
+           1224    4613    4163    4153
CTETRA      1510       2     493     504     503    2867    1217    1216+
+           1215    4975    5304    5441
CTETRA      1511       2    2624    2675    2629    2625    4995    5255+
+           2960    2932    4475    2956
CTETRA      1512       2    1519    2672    2631    2625    4479    4480+
+           4467    4468    3095    2962
CTETRA      1513       2    2624    2622    2619    2621    2953    2944+
+           4535    2935    2930    2924
CTETRA      1514       2    1509    2672    1519    2671    3302    4479+
+           1753    4568    3097    5364
CTETRA      1515       2      61    2728    1499    2673    4373    3338+
+           2134    3290    3337    3291
CTETRA      1516       2    1521    2626    2631    2623    2938    5144+
+           4228    2928    2939    2961
CTETRA      1517       2    1511    2620    1512    2619    4537    4539+
+           1730    4538    2921    4549
CTETRA      1518       2      60    2672    1510    2631    3323    3325+
+           2136    3639    4480    4227
CTETRA      1519       2    1510    2631    2672    2621    4227    4480+
+           3325    3328    2963    4481
CTETRA      1520       2    1514    2620    2618    2619    4544    2922+
+           4988    4546    2921    2920
CTETRA      1521       2    2620    2669    2625    2621    3102    3099+
+           4997    2925    3104    2936
CTETRA      1522       2    1534    2622    1535    2750    5124    4270+
+           1795    5126    4266    4269
CTETRA      1523       2    1502    1503    2727    2668    1705    5361+
+           5360    3578    3584    4372
CTETRA      1524       2    1539    2629    1540    2628    5145    5097+
+           1810    5146    2948    5098
CTETRA      1525       2    1518    1529    2675    2625    1780    5256+
+           4471    4474    4470    4475
CTETRA      1526       2    1514    2618    1524    2619    4988    4531+
+           1766    4546    2920    4534
CTETRA      1527       2    1524    2624    2622    2619    4533    2953+
+           5299    4534    4535    2944
CTETRA      1528       2    1529    2629    2675    2625    4469    5255+
+           5256    4470    2956    4475
CTETRA      1529       2    1538    1549    2749    2628    1836    5467+
+           4252    4250    5139    4251
CTETRA      1530       2    2626    2784    2749    2750    4261    3620+
+           4260    4267    3621    3428
CTETRA      1531       2    1516    1527    2618    2675    1774    4993+
+           4989    4991    4994    3111
CTETRA      1532       2    1538    2749    2624    2630    4252    3438+
+           4256    4253    4254    3436
CTETRA      1533       2    1536    2624    1537    2749    3437    4255+
+           1801    3427    3438    4257
CTETRA      1534       2     334    2715    2644    2703    3245    3265+
+           3194    3192    3238    3193
CTETRA      1535       2     299     310     309    2681     671     670+
+            669    5571    5563    5400
CTETRA      1536       2     331     341    2708    2709     759    5545+
+           4766    5549    5546    3236
CTETRA      1537       2    2716    2809    2720    2706    3805    4757+
+           3814    3455    4084    4336
CTETRA      1538       2     334    2644     345    2704    3194    3677+
+            770    3195    3197    4765
CTETRA      1539       2     335     336     346    2796     742     772+
+            771    4389    5572    5573
CTETRA      1540       2     342    2704     343    2710    3218    5553+
+            763    3219    3216    5554
CTETRA      1541       2     355     356    2815    2710     800    4106+
+           4116    3655    4107    4108
CTETRA      1542       2     102     334    2715    2644    1443    3245+
+           5444    5574    3194    3265
CTETRA      1543       2    2705    2703    2707    2704    3201    3203+
+           3200    3223    3196    3208
CTETRA      1544       2      99    2858     357    2653    5535    5047+
+           1349    5536    4381    5269
CTETRA      1545       2     375    2655    2654    2656    3040    3032+
+           3042    3056    3036    3035
CTETRA      1546       2     100     356    2796    2858    1439    4104+
+           5575    5576    5268    5054
CTETRA      1547       2     378    2653    2645    2654    5178    5025+
+           5577    5179    3031    5181
CTETRA      1548       2     347     357    2858    2859     803    5047+
+           5053    4394    5049    5048
CTETRA      1549       2     368    2660     369    2646    5500    5270+
+            835    5027    5272    4858
CTETRA      1550       2     100    2796     346    2858    5575    5573+
+           1347    5576    5054    5578
CTETRA      1551       2     346    2796     347    2858    5573    5055+
+            773    5578    5054    5053
CTETRA      1552       2     378     389     388    2645     894     893+
+            892    5577    4721    5182
CTETRA      1553       2       1    2513    2511    2873    2525    2526+
+           2519    4903    4908    4917
CTETRA      1554       2     378    2645     388    2654    5577    5182+
+            892    5179    5181    4711
CTETRA      1555       2      84    2603     532    2869    4775    4776+
+           1407    5579    5235    5234
CTETRA      1556       2      84     522    2603    2869    1379    5580+
+           4775    5579    5559    5235
CTETRA      1557       2     522     533    2603    2854    1298    3464+
+           5580    5562    5581    5239
CTETRA      1558       2     245     246    2259    2876     255    2504+
+           2507    5582    5583    5584
CTETRA      1559       2     142     537     538    2757    1391    1312+
+           1392    5420    4361    4346
CTETRA      1560       2     533    2603    2854    2606    3464    5239+
+           5581    3093    3462    4238
CTETRA      1561       2     449     450     460    2698    1064    1094+
+           1093    5585    4813    5351
CTETRA      1562       2    2607    2874    2756    2606    4906    5417+
+           4350    2884    5513    3465
CTETRA      1563       2    2730    2611    2612    2731    3347    2902+
+           4665    3348    3350    3401
CTETRA      1564       2     137     542    2604    2610    1401    2879+
+           5309    4852    2894    3403
CTETRA      1565       2     452    2699    2698    2817    4698    3182+
+           4697    4510    3851    4845
CTETRA      1566       2     144    2606     535    2757    4662    4232+
+           1387    4365    3466    4235
CTETRA      1567       2     534    2854     535    2606    5586    5587+
+           1303    3094    4238    4232
CTETRA      1568       2     525     535    2854    2853    1305    5587+
+           5243    5240    4234    4237
CTETRA      1569       2     160     161    2765    2616     180    5566+
+           3508    5162    5459    5163
CTETRA      1570       2    1641    2632    2843    2663    5274    5448+
+           5508    5275    3999    4490
CTETRA      1571       2    1642    2635    1643    2614    5452    4218+
+           2099    2908    4222    4221
CTETRA      1572       2       6     159    2702    2764     170    3499+
+           3191    5155    3501    3500
CTETRA      1573       2    1509    1520    1519    2672    1755    1754+
+           1753    3302    3301    4479
CTETRA      1574       2    1557    1568    1567    2808    1889    1888+
+           1887    4058    4797    4624
CTETRA      1575       2    2702    2690    2764    2763    3745    4783+
+           3500    3503    5154    3504
CTETRA      1576       2     159     160    2764    2616     181    3505+
+           3501    5161    5162    5157
CTETRA      1577       2    1646    1647    2844    2856    2111    5588+
+           5284    5589    5590    5523
CTETRA      1578       2    1625    1636    1635    2636    2081    2080+
+           2079    4505    5428    5165
CTETRA      1579       2      55    1575    2807    2795    2198    3782+
+           5591    5592    3672    4885
CTETRA      1580       2     504     505     515    2845    1219    1249+
+           1248    5303    4591    4683
CTETRA      1581       2    2674    2667    2675    2669    5202    4524+
+           3105    3108    3084    3109
CTETRA      1582       2     108     159     258    2702    1329    1331+
+           1330    3189    3499    4062
CTETRA      1583       2    1500    2727    1511    2673    5259    4540+
+           1728    3340    3336    3327
CTETRA      1584       2    2666    2728    2777    2744    3335    3566+
+           3565    3421    3420    4530
CTETRA      1585       2    1525    2618    1526    2624    5068    5593+
+           1770    5297    4532    5594
CTETRA      1586       2      32    2263    2270    2827    2454    2337+
+           2457    3925    5595    5596
CTETRA      1587       2    1514    2674    1515    2618    4987    5184+
+           1739    4988    3110    5067
CTETRA      1588       2    1515    2674    1516    2618    5184    4990+
+           1742    5067    3110    4989
CTETRA      1589       2     330     341    2713    2708     758    5543+
+           5597    4767    5545    5544
CTETRA      1590       2     336     347     346    2796     774     773+
+            772    5572    5055    5573
CTETRA      1591       2     328    2719    2713    2714    3275    5487+
+           5598    3266    5486    3233
CTETRA      1592       2    2832    2859    2643    2841    4651    4395+
+           4111    4113    4393    4114
CTETRA      1593       2    1615    1616    1626    2772    2024    2054+
+           2053    4192    3543    5599
CTETRA      1594       2     325    2640     336    2642    3760    2991+
+            743    4764    2995    2994
CTETRA      1595       2     317     328     327    2719     721     720+
+            719    5600    3275    3274
CTETRA      1596       2     107     108     258    2762     110    1330+
+           1332    4070    4069    4060
CTETRA      1597       2    2752    2643    2832    2641    4403    4111+
+           4402    4644    3262    4650
CTETRA      1598       2     336     347    2796    2643     774    5055+
+           5572    3955    4396    3952
CTETRA      1599       2     352     353    2832    2709     791    4011+
+           5260    5266    5551    4109
CTETRA      1600       2    2869    2611    2729    2731    5228    3345+
+           4610    4674    3350    3349
CTETRA      1601       2     259     260     270    2761     550     549+
+            548    3493    5540    5538
CTETRA      1602       2    2645    2654    2659    2828    5181    3890+
+           5196    4723    4712    4707
CTETRA      1603       2    2796    2859    2858    2841    4404    5048+
+           5054    4119    4393    4382
CTETRA      1604       2     342     343     353    2710     763     793+
+            792    3219    5554    5552
CTETRA      1605       2    1561    1562    1572    2792    1872    1902+
+           1901    3776    3798    3661
CTETRA      1606       2     348     349    2859    2641     779    5601+
+           4654    4655    5602    4398
CTETRA      1607       2    2840    2839    2706    2738    4077    4306+
+           4083    4080    4079    3451
CTETRA      1608       2     328    2713     339    2714    5598    5547+
+            752    3266    3233    4656
CTETRA      1609       2     478     479     489    2875    1145    1175+
+           1174    5603    4959    5604
CTETRA      1610       2     340    2713     341    2752    5605    5543+
+            757    3433    5548    4941
CTETRA      1611       2    1494    1495    1505    2848    1680    1713+
+           1712    4874    4868    5350
CTETRA      1612       2     328     339     338    2714     752     751+
+            750    3266    4656    3267
CTETRA      1613       2     360    2859    2658    2660    5041    4392+
+           5261    3058    4391    4390
CTETRA      1614       2     360     371     370    2660     842     841+
+            840    3058    3057    5271
CTETRA      1615       2     361    2658     362    2650    5045    3062+
+            816    5555    3064    3063
CTETRA      1616       2     168     169    2801    2780     172    4452+
+           5524    5376    4454    4453
CTETRA      1617       2      92     444      93    2833    1423    1424+
+            125    5129    5132    5606
CTETRA      1618       2    2702    2801    2690    2802    4439    3732+
+           3745    3748    3736    3735
CTETRA      1619       2     187    2615    2844    2779    5282    4145+
+           5281    5371    4780    5102
CTETRA      1620       2     168    2780    2801    2782    5376    4453+
+           5524    5377    3589    4126
CTETRA      1621       2    2779    2842    2780    2782    4147    4146+
+           3585    3588    4130    3589
CTETRA      1622       2     145      17     146    2874    2560    2559+
+            148    5510    5607    5511
CTETRA      1623       2     535    2853     536    2757    4234    4358+
+           1306    4235    4236    4360
CTETRA      1624       2      16    2513      17    2874    2523    2521+
+             22    5415    4905    5607
CTETRA      1625       2     463     474     473    2865    1133    1132+
+           1131    4692    5014    4559
CTETRA      1626       2    2612    2606    2853    2731    2900    4233+
+           4666    3401    3461    4240
CTETRA      1627       2     535    2854    2853    2606    5587    4237+
+           4234    4232    4238    4233
CTETRA      1628       2     144    2874     145    2606    5418    5510+
+            149    4662    5513    5512
CTETRA      1629       2     408     409     419    2824     949     979+
+            978    3908    5380    5105
CTETRA      1630       2     531    2869    2603    2611    5227    5235+
+           5225    3341    5228    5226
CTETRA      1631       2    1495    1505    2848    2667    1713    5350+
+           4868    5031    5033    5257
CTETRA      1632       2    2608    2739    2741    2609    4355    4855+
+           3397    2888    4356    3406
CTETRA      1633       2    2603    2611    2731    2605    5226    3350+
+           3460    2881    2897    3402
CTETRA      1634       2     436     447     446    2701    1056    1055+
+           1054    4038    4810    4809
CTETRA      1635       2     334     345     344    2704     770     769+
+            768    3195    4765    5514
CTETRA      1636       2     244    2257    2545    2876    2508    5608+
+           2548    5609    5338    5406
CTETRA      1637       2     479     480     490    2875    1148    1178+
+           1177    4959    4960    5088
CTETRA      1638       2     436     437    2701    2834    1027    4802+
+           4038    4041    4844    4042
CTETRA      1639       2    2732    2869    2729    2731    5504    4610+
+           3352    4241    4674    3349
CTETRA      1640       2     533    2854     534    2606    5581    5586+
+           1300    3093    4238    3094
CTETRA      1641       2    2512    2515    2514    2739    2528    2530+
+           2529    5421    5480    5481
CTETRA      1642       2     526     527    2730    2732    1281    4670+
+           4668    4680    5610    3360
CTETRA      1643       2     539    2730     540    2612    5241    5237+
+           1318    5242    4665    5236
CTETRA      1644       2     142    2739    2515    2756    5419    5480+
+           5408    5409    4354    5410
CTETRA      1645       2     406     417     416    2823     972     971+
+            970    5611    5520    5521
CTETRA      1646       2     527     528    2730    2732    1284    3359+
+           4670    5610    3357    3360
CTETRA      1647       2     528     529    2730    2729    1287    5232+
+           3359    3358    5233    3346
CTETRA      1648       2    2302    2303    2310    2754    2426    2447+
+           2446    5612    5613    5614
CTETRA      1649       2     492     493     503    2867    1185    1215+
+           1214    4977    4975    5441
CTETRA      1650       2    2303    2311    2310    2754    2449    2448+
+           2447    5613    5615    5614
CTETRA      1651       2     523     534     533    2854    1301    1300+
+           1299    4676    5586    5581
CTETRA      1652       2    2299    2300    2307    2754    2417    2438+
+           2437    3541    5616    3443
CTETRA      1653       2    2301    2302    2754    2767    2423    5612+
+           5617    5618    5490    5494
CTETRA      1654       2     488     499     498    2875    1204    1203+
+           1202    5619    5212    4964
CTETRA      1655       2    2307    2308    2753    2754    2439    3650+
+           3440    3443    5620    3444
CTETRA      1656       2    2308    2309    2753    2754    2442    3730+
+           3650    5620    5621    3444
CTETRA      1657       2    2273    2274    2281    2871    2347    2368+
+           2367    4749    5622    4750
CTETRA      1658       2      33    2277      34    2799    2459    2458+
+             42    5623    3712    3711
CTETRA      1659       2     168     169     267    2801     172    1459+
+           1458    5524    4452    4923
CTETRA      1660       2     277    2691     278    2683    5624    5625+
+            579    3127    3984    3128
CTETRA      1661       2     275     276     286    2683     571     604+
+            603    5626    5627    5628
CTETRA      1662       2     283     294     293    2657     625     624+
+            623    4093    5172    5171
CTETRA      1663       2      38    2305    2753    2754    2466    3633+
+           4653    4488    5629    3444
CTETRA      1664       2     487     498     497    2875    1201    1200+
+           1199    4949    4964    4950
CTETRA      1665       2     267    2691    2801    2802    4927    3733+
+           4923    5630    3734    3736
CTETRA      1666       2     276    2691     277    2683    5631    5624+
+            575    5627    3984    3127
CTETRA      1667       2    2758    2670    2679    2692    3963    4014+
+           3472    3470    4016    3471
CTETRA      1668       2     166     167    2801    2782     174    5525+
+           4122    4125    5526    4126
CTETRA      1669       2    2801    2780    2842    2782    4453    4146+
+           4128    4126    3589    4130
CTETRA      1670       2     188    2860     189    2615    5632    5034+
+            197    5283    5375    4214
CTETRA      1671       2     186     187    2844    2779     199    5281+
+           5100    3602    5371    5102
CTETRA      1672       2     187    2860     188    2615    5373    5632+
+            198    5282    5375    5283
CTETRA      1673       2    1526    1537    1536    2624    1802    1801+
+           1800    5594    4255    3437
CTETRA      1674       2    1529    1540    1539    2629    1811    1810+
+           1809    4469    5097    5145
CTETRA      1675       2    1503    2620    2727    2668    3583    4542+
+           5361    3584    3580    4372
CTETRA      1676       2    1505    1506    2675    2667    1714    5633+
+           5634    5033    5032    4524
CTETRA      1677       2    1568    1579    1578    2863    1920    1919+
+           1918    4798    4434    5071
CTETRA      1678       2    1505    1516    2674    2675    1743    4990+
+           5349    5634    4991    3105
CTETRA      1679       2    1598    1599    2773    2872    1975    4579+
+           5635    5636    4887    4889
CTETRA      1680       2     229    1479    1478    2850    4551    1659+
+           4493    4183    4553    4555
CTETRA      1681       2      36      37    2297    2767      45    2486+
+           2487    3948    5637    3949
CTETRA      1682       2    1540    1551    1550    2628    1842    1841+
+           1840    5098    5148    5140
CTETRA      1683       2    1507    2747    1508    2671    5344    4848+
+           1720    5345    4526    5363
CTETRA      1684       2    1495    2743    1496    2747    4870    5471+
+           1684    4871    4873    5472
CTETRA      1685       2      58    1542    2626    2784    2204    4264+
+           5185    5638    5136    4261
CTETRA      1686       2    1497    2747    2743    2748    4849    4873+
+           4562    4564    3423    4565
CTETRA      1687       2     275     286     285    2676     603     602+
+            601    3702    5385    5384
CTETRA      1688       2    1568    1569    1579    2863    1891    1921+
+           1920    4798    4794    4434
CTETRA      1689       2    1508    2671    2747    2748    5363    4526+
+           4848    4850    4528    3423
CTETRA      1690       2    1503    2848    1504    2674    5639    5640+
+           1708    3582    5258    5183
CTETRA      1691       2    1504    2848    1505    2674    5640    5350+
+           1711    5183    5258    5349
CTETRA      1692       2      62    1477    1488    2849    2131    1653+
+           2132    4378    5641    5642
CTETRA      1693       2     263     264     274    2688     566     565+
+            564    4313    3137    3136
CTETRA      1694       2    1626    1637    1636    2830    2084    2083+
+           2082    4284    4280    4275
CTETRA      1695       2     276    2691    2683    2689    5631    3984+
+           5627    5643    3155    5644
CTETRA      1696       2     106     290     107    2758    1451    1452+
+            111    3475    3979    3956
CTETRA      1697       2     267    2801    2702    2802    4923    4439+
+           4922    5630    3736    3748
CTETRA      1698       2     267     278    2691    2802     580    5625+
+           4927    5630    3739    3734
CTETRA      1699       2    2685    2681    2838    2686    4302    5401+
+           5059    3131    4303    4073
CTETRA      1700       2    2676    2683    2684    2692    4781    3318+
+           5292    3144    3974    4092
CTETRA      1701       2     278     289    2683    2760     612    5564+
+           3128    3737    3490    3738
CTETRA      1702       2    2310    2311    2753    2754    2448    3569+
+           3568    5614    5615    3444
CTETRA      1703       2    2272    2280    2279    2871    2364    2363+
+           2362    5322    4751    5645
CTETRA      1704       2     339    2752     350    2641    5263    3435+
+            783    4657    4644    4649
CTETRA      1705       2     305    2685     306    2838    4297    5392+
+            658    4984    5059    5393
CTETRA      1706       2     298     309     308    2685     668     667+
+            666    5430    5399    5389
CTETRA      1707       2      63    1498    1487    2798    2213    1693+
+           2214    5342    4574    5646
CTETRA      1708       2     330    2708    2839    2705    4767    5446+
+           5445    4768    3205    4339
CTETRA      1709       2     214    1485     234    1486    2220    5647+
+           2253    2217    1687    4863
CTETRA      1710       2     317    2838     318    2840    5567    5527+
+            692    5648    4078    5528
CTETRA      1711       2     317     327    2809    2719     719    5649+
+           5568    5600    3274    5478
CTETRA      1712       2     297     298     308    2685     636     666+
+            665    5296    5430    5389
CTETRA      1713       2     317    2840     328    2719    5648    5650+
+            721    5600    5477    3275
CTETRA      1714       2     317    2838    2840    2809    5567    4078+
+           5648    5568    4082    4081
CTETRA      1715       2     308    2685     309    2838    5389    5399+
+            667    5391    5059    5398
CTETRA      1716       2     328    2840     329    2713    5650    5651+
+            723    5598    5550    5652
CTETRA      1717       2     329    2840     330    2713    5651    5653+
+            726    5652    5550    5597
CTETRA      1718       2    1567    1578    1577    2863    1917    1916+
+           1915    4627    5071    4791
CTETRA      1719       2    1573    1584    1583    2793    1935    1934+
+           1933    3665    3669    5289
CTETRA      1720       2      55    2807    1565    2795    5591    5247+
+           2146    5592    4885    5654
CTETRA      1721       2      57    1564    1553    2804    2201    1879+
+           2202    5081    4881    5075
CTETRA      1722       2    1570    1581    1580    2790    1926    1925+
+           1924    4943    3656    4793
CTETRA      1723       2    2288    2289    2296    2759    2388    2409+
+           2408    5655    3485    4536
CTETRA      1724       2    2270    2827    2271    2799    5596    5314+
+           2338    5656    5657    5658
CTETRA      1725       2    2266    2274    2273    2819    2348    2347+
+           2346    5659    5660    5661
CTETRA      1726       2     164     187    2693    2860    2591    3151+
+           5662    4920    5373    5372
CTETRA      1727       2     182    2613    2780    2664    3592    4925+
+           5453    3593    3595    5096
CTETRA      1728       2     280     281     291    2670     587     617+
+            616    3966    3086    3088
CTETRA      1729       2    1591    1592    1602    2866    1956    1986+
+           1985    5064    5663    5664
CTETRA      1730       2    2861    2690    2765    2842    4418    4782+
+           4445    4443    4441    4447
CTETRA      1731       2     318     319     329    2840     695     725+
+            724    5528    5529    5651
CTETRA      1732       2     108     268    2702    2802    1455    3190+
+           3189    3750    5665    3748
CTETRA      1733       2      91     466     455    2695    1420    1111+
+           1421    3163    4702    4691
CTETRA      1734       2      54    1565    1576    2795    2147    1911+
+           2148    5069    5654    5073
CTETRA      1735       2     106     269     280    2829    1334     585+
+           1335    3964    3971    3967
CTETRA      1736       2    2761    2765    2690    2763    4785    4782+
+           4309    3497    3509    5154
CTETRA      1737       2     320     321     331    2705     701     731+
+            730    4771    4772    3220
CTETRA      1738       2     454     465     464    2699    1108    1107+
+           1106    3848    4701    5348
CTETRA      1739       2    1619    2633    1630    2771    5010    3992+
+           2065    5666    3540    3534
CTETRA      1740       2    2261    2870    2821    2876    5667    5668+
+           5332    5334    5407    5335
CTETRA      1741       2    2803    2829    2758    2692    3961    3960+
+           3957    3981    4004    3470
CTETRA      1742       2     270    2761    2678    2762    5538    4067+
+           3118    3970    3494    4065
CTETRA      1743       2     165     263    2861    2677    1467    4411+
+           5669    3115    3117    4442
CTETRA      1744       2     168     267     266    2801    1458     578+
+           1461    5524    4923    4929
CTETRA      1745       2     107    2758     290    2760    3956    3979+
+           1452    3982    3978    3977
CTETRA      1746       2     270    2762    2678    2829    3970    4065+
+           3118    3973    3972    4002
CTETRA      1747       2     274     285     284    2676     600     599+
+            598    3156    5384    3113
CTETRA      1748       2     107     279    2803    2760    1453    3985+
+           3958    3982    3742    3752
CTETRA      1749       2     278     289     288    2683     612     611+
+            610    3128    5564    3129
CTETRA      1750       2     107    2762     269    2829    4070    3969+
+           1333    3959    3972    3971
CTETRA      1751       2     276     287     286    2683     606     605+
+            604    5627    3319    5628
CTETRA      1752       2    2258    2266    2265    2818    2322    2321+
+           2319    5337    5670    3867
CTETRA      1753       2     268     279     278    2802     584     583+
+            581    5665    3743    3739
CTETRA      1754       2     162     190     189    2765    2596     196+
+           2595    4415    5286    5671
CTETRA      1755       2     284    2676     285    2684    3113    5384+
+            599    5167    5292    5386
CTETRA      1756       2     161     190     162    2765    2597    2596+
+            179    5566    5286    4415
CTETRA      1757       2       5    2780    2613    2616    5457    4925+
+           5456    5672    4924    2918
CTETRA      1758       2     284     285     295    2684     599     629+
+            628    5167    5386    5168
CTETRA      1759       2     266     267     277    2691     578     577+
+            576    4928    4927    5624
CTETRA      1760       2     164    2693    2861    2860    5662    4456+
+           5673    4920    5372    4446
CTETRA      1761       2     162     261    2765    2857    1470    5542+
+           4415    4408    4322    4417
CTETRA      1762       2    2272    2273    2280    2871    2344    2365+
+           2364    5322    4749    4751
CTETRA      1763       2     265    2801    2691    2677    5159    3733+
+           3154    3147    4779    3153
CTETRA      1764       2    2676    2683    2691    2689    4781    3984+
+           3143    3158    5644    3155
CTETRA      1765       2     278     279     289    2760     583     613+
+            612    3737    3742    3490
CTETRA      1766       2      92      93     423    2833     125    1361+
+           1362    5129    5606    5189
CTETRA      1767       2      56    2804    1554    2807    4882    5674+
+           2144    5675    3771    5248
CTETRA      1768       2     168     184     183    2782    2584     202+
+           2583    5377    3618    5370
CTETRA      1769       2     187     188    1647    2844     198    2171+
+           2172    5281    5280    5588
CTETRA      1770       2     319     330     329    2840     727     726+
+            725    5529    5653    5651
CTETRA      1771       2     320     331     330    2705     730     729+
+            728    4771    3220    4768
CTETRA      1772       2     263     274     273    2778     564     563+
+            561    4314    4316    4405
CTETRA      1773       2     481    2864     482    2868    5676    5677+
+           1154    5678    4598    5679
CTETRA      1774       2     167     266     265    2801    1460     574+
+           1463    5525    4929    5159
CTETRA      1775       2     166     167     265    2801     174    1463+
+           1462    4122    5525    5159
CTETRA      1776       2     321     332     331    2705     733     732+
+            731    4772    3221    3220
CTETRA      1777       2       6     182       5    2780    2580     204+
+             81    5156    5453    5457
CTETRA      1778       2     482    2864     483    2868    5677    5680+
+           1157    5679    4598    5681
CTETRA      1779       2    1489    2849    2768    2728    5194    4191+
+           4374    4377    4368    4367
CTETRA      1780       2     433    2722    2833    2723    3285    4842+
+           5186    3286    3288    4820
CTETRA      1781       2     230    2769     231    2766    5191    3528+
+            235    3527    3530    3512
CTETRA      1782       2     286     297     296    2684     634     633+
+            632    5387    5294    5293
CTETRA      1783       2     270     281     280    2829     588     587+
+            586    3973    3968    3967
CTETRA      1784       2     104     323     312    2718    1446     708+
+           1447    3448    3256    3453
CTETRA      1785       2      92     423     434    2833    1362    1019+
+           1363    5129    5189    4805
CTETRA      1786       2    2268    2821    2269    2827    5325    5682+
+           2333    5317    5327    3927
CTETRA      1787       2    2746    2849    2768    2745    4366    4191+
+           4166    4168    4176    4169
CTETRA      1788       2    1488    2849    1489    2728    5642    5194+
+           1656    5683    4368    4377
CTETRA      1789       2      62    2849    1488    2728    4378    5642+
+           2132    4371    4368    5683
CTETRA      1790       2      62    2849    2746    2798    4378    4366+
+           4370    5341    4174    4178
CTETRA      1791       2    2278    2279    2286    2800    2360    2381+
+           2380    5684    5685    5686
CTETRA      1792       2     357     358     368    2660     804     834+
+            833    5050    5052    5500
CTETRA      1793       2      63     228     205    1477    4476    2244+
+           2128    2129    5687    2130
CTETRA      1794       2    2257    2818    2821    2876    5328    5324+
+           5329    5338    5336    5335
CTETRA      1795       2     244    2545     245    2876    2548    2551+
+            256    5609    5406    5582
CTETRA      1796       2      63     228    1477    2849    4476    5687+
+           2129    4477    4462    5641
CTETRA      1797       2      61    2666      62    2728    3331    4369+
+             66    4373    3335    4371
CTETRA      1798       2     234    2798    2743    2789    4866    3692+
+           4865    4840    3691    3690
CTETRA      1799       2     292     293     303    2810     621     651+
+            650    5057    5173    3808
CTETRA      1800       2    2545    2821    2870    2876    5688    5668+
+           5403    5406    5335    5407
CTETRA      1801       2    2742    2743    2848    2744    3411    4869+
+           4875    3413    3412    4173
CTETRA      1802       2    1512    1523    1522    2619    1762    1761+
+           1760    4549    4548    2943
CTETRA      1803       2    1483    1494    2742    2743    1677    4876+
+           3709    3708    4877    3411
CTETRA      1804       2     165     186     166    2693    2589    2588+
+            175    3150    3152    4124
CTETRA      1805       2      34    2284      35    2800    2461    2460+
+             43    3713    3863    5689
CTETRA      1806       2    1481    2742    2768    2766    5476    4187+
+           3522    3514    3521    3525
CTETRA      1807       2     232    1483    2742    2797    3700    3709+
+           3718    3687    3701    3710
CTETRA      1808       2       3    1487     234    2798    5690    5691+
+            241    5343    5646    4866
CTETRA      1809       2    2666    2673    2672    2669    3332    3324+
+           3330    3083    3101    3098
CTETRA      1810       2    1492    2768    2848    2668    5475    4172+
+           5474    5264    4171    4170
CTETRA      1811       2    2848    2743    2747    2744    4869    4873+
+           4872    4173    3412    3425
CTETRA      1812       2    2746    2666    2748    2744    3418    3424+
+           4573    3419    3421    3426
CTETRA      1813       2       2    2545    2256    2870    2553    5692+
+           2452    5693    5403    5694
CTETRA      1814       2     329     340     339    2713     755     754+
+            753    5652    5605    5547
CTETRA      1815       2     339     340     350    2752     754     784+
+            783    5263    3433    3435
CTETRA      1816       2      60    1520      61    2672    2208    2209+
+             67    3323    3301    3300
CTETRA      1817       2     375     386     385    2659     885     884+
+            883    3900    3901    3897
CTETRA      1818       2     327    2720    2719    2640    3280    4760+
+           3274    3276    3282    3277
CTETRA      1819       2    1523    1534    1533    2622    1793    1792+
+           1791    4547    5124    5123
CTETRA      1820       2     331     342     341    2709     761     760+
+            759    5549    3217    5546
CTETRA      1821       2     108    2803     279    2802    3749    3985+
+           1454    3750    3747    3743
CTETRA      1822       2     329     330     340    2713     726     756+
+            755    5652    5597    5605
CTETRA      1823       2     336     347    2643    2641     774    4396+
+           3955    2993    4397    3262
CTETRA      1824       2    1518    2671    1519    2625    4473    5364+
+           1751    4474    3096    4468
CTETRA      1825       2     270    2678     281    2829    3118    3120+
+            588    3973    4002    3968
CTETRA      1826       2     272     283    2678    2778     594    3571+
+           5509    5224    3572    3574
CTETRA      1827       2     285     296     295    2684     631     630+
+            629    5386    5293    5168
CTETRA      1828       2    2801    2690    2677    2842    3732    3159+
+           4779    4128    4441    4444
CTETRA      1829       2     263     264    2688    2677     566    3137+
+           4313    3117    3116    4777
CTETRA      1830       2     352     363     362    2832     820     819+
+            818    5260    4013    5262
CTETRA      1831       2     192    1642    1643    2614    2162    2099+
+           2163    2906    2908    4221
CTETRA      1832       2     159       5     192    2616    2602     193+
+           2601    5161    5672    2917
CTETRA      1833       2     287    2683     288    2680    3319    3129+
+            608    3320    3322    5565
CTETRA      1834       2    1651    2663    1652    2664    3610    5277+
+           2126    3611    3074    3594
CTETRA      1835       2     328     329     339    2713     723     753+
+            752    5598    5652    5547
CTETRA      1836       2    2676    2678    2761    2692    3570    4067+
+           4310    3144    4003    4460
CTETRA      1837       2    2702    2762    2690    2763    4061    4926+
+           3745    3503    3498    5154
CTETRA      1838       2     345    2644    2796    2710    3677    3681+
+           3680    3654    3953    3954
CTETRA      1839       2     361     372     371    2650     845     844+
+            843    5555    5029    3060
CTETRA      1840       2     259    2765    2761    2763    5153    4785+
+           3493    3496    3509    3497
CTETRA      1841       2     162     189    2860    2765    2595    5034+
+           4406    4415    5671    4416
CTETRA      1842       2     380     381     391    2647     869     899+
+            898    5037    5038    3828
CTETRA      1843       2     315     326     325    2720     715     714+
+            713    4756    3279    3606
CTETRA      1844       2     189     190    2615    2765     196    2909+
+           4214    5671    5286    4450
CTETRA      1845       2       2     243    2256    2545     250    2453+
+           2452    2553    2549    5692
CTETRA      1846       2     259     260    2761    2765     550    5540+
+           3493    5153    5541    4785
CTETRA      1847       2     300     311     310    2681     674     673+
+            672    4724    5431    5563
CTETRA      1848       2     321     322     332    2705     704     734+
+            733    4772    4773    3221
CTETRA      1849       2     287     288     298    2680     608     638+
+            637    3320    5565    5394
CTETRA      1850       2     229     230    1480    2766     236    3526+
+           4552    4185    3527    3524
CTETRA      1851       2     229    2306     230    2787    2471    2472+
+            236    3720    3636    5192
CTETRA      1852       2     400     411     410    2816     956     955+
+            954    4720    3911    4328
CTETRA      1853       2     370     381     380    2646     870     869+
+            868    5273    5036    4859
CTETRA      1854       2      98     389     378    2645    1434     894+
+           1435    5695    4721    5577
CTETRA      1855       2    1478    1479    2768    2850    1659    5696+
+           5195    4555    4553    4190
CTETRA      1856       2     205     228     206    1477    2244    2245+
+            227    2130    5687    2235
CTETRA      1857       2    2768    2850    2766    2745    4190    4186+
+           3525    4169    4182    4188
CTETRA      1858       2    1506    2671    2675    2667    5122    4472+
+           5633    5032    3090    4524
CTETRA      1859       2     412     423    2722    2820     988    5188+
+           5110    5113    5462    3872
CTETRA      1860       2      97     389    2645    2813    1433    4721+
+           5697    5537    4714    4722
CTETRA      1861       2    2719    2703    2714    2642    5488    3235+
+           5486    4761    3230    3264
CTETRA      1862       2     339    2713     340    2752    5547    5605+
+            754    5263    5548    3433
CTETRA      1863       2    1503    2848    2674    2668    5639    5258+
+           3582    3584    4170    3581
CTETRA      1864       2      63    1487       3    2798    2214    5690+
+           4018    5342    5646    5343
CTETRA      1865       2      63       4       3    1487      64    2243+
+           4018    2214    2216    5690
CTETRA      1866       2     102     313     324    2715    1342     709+
+           1343    5444    4758    4762
CTETRA      1867       2     387     398     397    2822     919     918+
+            917    3936    3930    4708
CTETRA      1868       2     372     373     383    2648     847     877+
+            876    5030    3021    5534
CTETRA      1869       2     249    2544    2545    2870    2555    2552+
+           2556    4646    5404    5403
CTETRA      1870       2      31    2262     249    2870    2497    2498+
+           2499    5698    4647    4646
CTETRA      1871       2    2299    2300    2754    2767    2417    5616+
+           3541    5493    5699    5494
CTETRA      1872       2     244     245    2258    2876     256    2506+
+           2509    5609    5582    5339
CTETRA      1873       2     401     412    2826    2814     957    5112+
+           5109    5522    5378    4733
CTETRA      1874       2    2816    2823    2814    2824    3902    4732+
+           4731    3904    3903    4735
CTETRA      1875       2     393     394     404    2812     906     936+
+            935    5200    3819    3833
CTETRA      1876       2     439    2724     440    2700    4121    4120+
+           1036    5700    4043    3852
CTETRA      1877       2     397     408     407    2825     947     946+
+            945    4709    3910    4334
CTETRA      1878       2     244    2258    2257    2876    2509    2320+
+           2508    5609    5339    5338
CTETRA      1879       2    2301    2302    2309    2754    2423    2444+
+           2443    5617    5612    5621
CTETRA      1880       2       2     249    2545    2870     251    2556+
+           2553    5693    4646    5403
CTETRA      1881       2     283    2678    2684    2657    3571    4459+
+           4095    4093    4458    4094
CTETRA      1882       2     410     421     420    2824     984     983+
+            982    4329    3920    4335
CTETRA      1883       2     300     301     311    2755     645     675+
+            674    3479    3478    3457
CTETRA      1884       2    2303    2304    2754    2767    2429    4489+
+           5613    3517    5701    5494
CTETRA      1885       2     349     350    2859    2641     782    5039+
+           5601    5602    4649    4398
CTETRA      1886       2    2256    2545    2821    2870    5692    5688+
+           3876    5694    5403    5668
CTETRA      1887       2     386     387    2822    2659     887    3936+
+           3938    3901    3929    3898
CTETRA      1888       2     424     435     434    2833    1022    1021+
+           1020    4841    5131    4805
CTETRA      1889       2     246    2260    2259    2876    2505    2328+
+           2504    5583    5702    5584
CTETRA      1890       2    2256    2545    2257    2821    5692    5608+
+           2316    3876    5688    5329
CTETRA      1891       2     370     371     381    2646     841     871+
+            870    5273    3012    5036
CTETRA      1892       2     247     248    2261    2544     253    2500+
+           2503    2547    2554    5703
CTETRA      1893       2     360     361     371    2650     813     843+
+            842    3059    5555    3060
CTETRA      1894       2     402     413     412    2814     960     959+
+            958    3841    5379    5378
CTETRA      1895       2     450     451     461    2698    1067    1097+
+           1096    4813    4815    5207
CTETRA      1896       2     373     384     383    2648     879     878+
+            877    3021    3027    5534
CTETRA      1897       2     243    2257    2256    2545    2510    2316+
+           2453    2549    5608    5692
CTETRA      1898       2     437     448     447    2701    1059    1058+
+           1057    4802    4803    4810
CTETRA      1899       2      92     455     444    2694    1422    1080+
+           1423    5130    4690    5133
CTETRA      1900       2    2813    2652    2811    2828    3822    3817+
+           5201    4717    5180    3951
CTETRA      1901       2     245    2545    2544    2876    2551    2552+
+           2550    5582    5406    5405
CTETRA      1902       2      31    2256    2821    2870    2451    3876+
+           5704    5698    5694    5668
CTETRA      1903       2     410     411     421    2824     955     985+
+            984    4329    3914    3920
CTETRA      1904       2    2275    2871    2819    2799    5705    5321+
+           5315    5706    5707    5708
CTETRA      1905       2    2266    2267    2274    2819    2325    2349+
+           2348    5659    5709    5660
CTETRA      1906       2    2732    2847    2845    2733    4827    4604+
+           4165    3356    4162    4155
CTETRA      1907       2      88    2711     478    2875    4621    4622+
+           1371    5710    4956    5603
CTETRA      1908       2     431     432     442    2726    1014    1044+
+           1043    4821    4819    5134
CTETRA      1909       2      87     499      88    2875    1413    1414+
+            130    5711    5212    5710
CTETRA      1910       2    2288    2296    2295    2759    2408    2407+
+           2406    5655    4536    5712
CTETRA      1911       2    2261    2544    2870    2876    5703    5404+
+           5667    5334    5405    5407
CTETRA      1912       2     368    2653    2660    2646    5026    4380+
+           5500    5027    3065    5272
CTETRA      1913       2     414     424    2820    2639     992    3873+
+           3879    3882    3874    3875
CTETRA      1914       2    2287    2288    2295    2759    2385    2406+
+           2405    5713    5655    5712
CTETRA      1915       2    2295    2303    2302    2767    2427    2426+
+           2425    3515    3517    5490
CTETRA      1916       2      61    1509      62    2666    2210    2211+
+             66    3331    4567    4369
CTETRA      1917       2     454    2694     455    2699    3847    4690+
+           1079    3848    3181    4700
CTETRA      1918       2     417     428     427    2639    1003    1002+
+           1001    2989    3885    2990
CTETRA      1919       2     490     491     501    2835    1179    1209+
+           1208    5087    5086    4033
CTETRA      1920       2     230    2307     231    2787    2473    2474+
+            235    5192    3652    3648
CTETRA      1921       2     451     462     461    2698    1099    1098+
+           1097    4815    5346    5207
CTETRA      1922       2    2265    2273    2272    2819    2345    2344+
+           2343    3870    5661    5319
CTETRA      1923       2      35      36    2290    2759      44    2488+
+           2489    5714    3947    3486
CTETRA      1924       2     232    2788     233    2797    3705    3725+
+            240    3687    3707    3688
CTETRA      1925       2       3     234    2311    2753     241    2481+
+           2482    4660    3567    3569
CTETRA      1926       2     229    1480    2850    2766    4552    4550+
+           4183    4185    3524    4186
CTETRA      1927       2     445    2701     446    2696    4808    4809+
+           1052    3167    3188    3168
CTETRA      1928       2      63       3     205     228    4018    2242+
+           2128    4476     237    2244
CTETRA      1929       2      60    1499    1510    2673    2135    1725+
+           2136    3289    3291    3326
CTETRA      1930       2    2260    2261    2818    2876    2332    5333+
+           5715    5702    5334    5336
CTETRA      1931       2       6    2702     169    2764    3191    4921+
+            171    5155    3500    4919
CTETRA      1932       2    1639    1640    1650    2663    2092    2122+
+           2121    3988    4290    5365
CTETRA      1933       2     438     449     448    2700    1062    1061+
+           1060    4044    5716    4801
CTETRA      1934       2     414     415     425    2639     965     995+
+            994    3882    3889    4048
CTETRA      1935       2     299    2680     300    2681    5717    4725+
+            642    5571    3122    4724
CTETRA      1936       2    2679    2755    2681    2686    3484    3483+
+           3123    3366    4301    4303
CTETRA      1937       2     445     446     456    2695    1052    1082+
+           1081    3165    3166    5358
CTETRA      1938       2     462     463     473    2865    1101    1131+
+           1130    5347    4692    4559
CTETRA      1939       2    2864    2712    2865    2649    4946    4945+
+           4560    5443    4706    5204
CTETRA      1940       2    2608    2607    2604    2873    3407    2885+
+           3404    5307    4910    4914
CTETRA      1941       2     248    2262    2261    2870    2501    2336+
+           2500    4645    4647    5667
CTETRA      1942       2     478    2711     479    2875    4622    4957+
+           1145    5603    4956    4959
CTETRA      1943       2      87      88     478    2875     130    1371+
+           1372    5711    5710    5603
CTETRA      1944       2      83     136     543    2604    1404    1403+
+           1405    4878    4880    3410
CTETRA      1945       2       7     533     146    2604    1382    1383+
+            147    4879    3463    4353
CTETRA      1946       2     136    2740    2604    2873    4901    5305+
+           4880    4902    4904    4914
CTETRA      1947       2    2267    2275    2274    2819    2351    2350+
+           2349    5709    5315    5660
CTETRA      1948       2     461     472    2697    2865    1127    5205+
+           5206    5208    4558    4944
CTETRA      1949       2      34    2283    2276    2799    2491    2374+
+           2492    3711    5718    5719
CTETRA      1950       2     453     454     464    2699    1076    1106+
+           1105    5127    3848    5348
CTETRA      1951       2    2282    2871    2799    2800    5720    5707+
+           5721    5722    5723    3714
CTETRA      1952       2    2277    2278    2285    2800    2357    2378+
+           2377    3715    5684    5724
CTETRA      1953       2     494     495     505    2867    1191    1221+
+           1220    4972    4967    4592
CTETRA      1954       2    2271    2827    2819    2799    5314    5313+
+           5311    5658    5657    5708
CTETRA      1955       2      33    2276    2827    2799    2493    5725+
+           3926    5623    5719    5657
CTETRA      1956       2      33    2276    2269    2827    2493    2355+
+           2494    3926    5725    3927
CTETRA      1957       2    2264    2272    2271    2819    2342    2341+
+           2340    3868    5319    5311
CTETRA      1958       2      34      35    2283    2800      43    2490+
+           2491    3713    5689    5726
CTETRA      1959       2     229    2305    2306    2787    2470    2433+
+           2471    3720    3634    3636
CTETRA      1960       2      83     522     533    2603    1380    1298+
+           1381    5310    5580    3464
CTETRA      1961       2      90     466    2695    2712    1419    4702+
+           5438    5439    4704    4931
CTETRA      1962       2     540    2612    2611    2610    5236    2902+
+           5238    5727    2903    2895
CTETRA      1963       2     525    2855     526    2853    4753    4667+
+           1278    5240    4246    4669
CTETRA      1964       2     480    2868     491    2875    5085    4969+
+           1180    4960    4953    4971
CTETRA      1965       2     230     231    2769    2787     235    3528+
+           5191    5192    3648    3640
CTETRA      1966       2     248    2544     249    2870    2554    2555+
+            252    4645    5404    4646
CTETRA      1967       2    2292    2293    2300    2767    2398    2419+
+           2418    5499    5497    5699
CTETRA      1968       2    1506    1507    1517    2671    1717    1747+
+           1746    5122    5345    5728
CTETRA      1969       2       3     228    2849    2789     237    4462+
+           4478    4839    3721    4175
CTETRA      1970       2    2713    2708    2709    2703    5544    3236+
+           3231    3234    3206    3211
CTETRA      1971       2    1479    1490    1489    2768    1661    1660+
+           1658    5696    5209    4374
CTETRA      1972       2    1477    1478    1488    2849    1655    1654+
+           1653    5641    4554    5642
CTETRA      1973       2     404     415     414    2814     966     965+
+            964    3832    4741    4738
CTETRA      1974       2    1479    1480    1490    2768    1663    1662+
+           1661    5696    3523    5209
CTETRA      1975       2     442     453     452    2817    1074    1073+
+           1072    5135    5128    4510
CTETRA      1976       2     473     474     484    2864    1132    1162+
+           1161    4556    5442    4595
CTETRA      1977       2     185    1649    1650    2781    2176    2120+
+           2177    3603    3615    5366
CTETRA      1978       2     448     459     458    2696    1090    1089+
+           1088    4847    5119    3178
CTETRA      1979       2    1607    1608    1618    2773    2002    2032+
+           2031    4204    5729    4205
CTETRA      1980       2     505     516     515    2845    1251    1250+
+           1249    4591    5215    4683
CTETRA      1981       2     527     538     537    2853    1313    1312+
+           1311    4671    4661    4359
CTETRA      1982       2     496     497     507    2846    1197    1227+
+           1226    4613    4615    4163
CTETRA      1983       2     507     518     517    2733    1257    1256+
+           1255    4164    3362    3354
CTETRA      1984       2    1617    1618    1628    2771    2030    2060+
+           2059    5730    4589    4590
CTETRA      1985       2    1607    1618    1617    2774    2031    2030+
+           2029    4206    4207    4774
CTETRA      1986       2    1578    1589    1588    2862    1948    1947+
+           1946    4892    4438    4437
CTETRA      1987       2    1567    1568    1578    2863    1888    1918+
+           1917    4627    4798    5071
CTETRA      1988       2    1560    2775    2806    2776    3560    3768+
+           3766    3561    3557    5152
CTETRA      1989       2    1525    1526    1536    2624    1770    1800+
+           1799    5297    5594    3437
CTETRA      1990       2     475     486     485    2864    1167    1166+
+           1165    5082    5084    4596
CTETRA      1991       2     458     469    2712    2697    1118    5093+
+           4930    4932    5355    4933
CTETRA      1992       2      89     488     477    2711    1416    1173+
+           1417    4934    5731    4935
CTETRA      1993       2     526     527     537    2853    1281    1311+
+           1310    4669    4671    4359
CTETRA      1994       2    1533    1544    1543    2784    1821    1820+
+           1819    5463    3630    5076
CTETRA      1995       2     524     525    2854    2855    1275    5243+
+           4675    4678    4753    4663
CTETRA      1996       2    1536    1537    1547    2749    1801    1831+
+           1830    3427    4257    5246
CTETRA      1997       2    1485    1486    1496    2743    1687    1686+
+           1685    3696    4864    5471
CTETRA      1998       2    1484    1485    1495    2743    1683    1682+
+           1681    5732    3696    4870
CTETRA      1999       2      91     455      92    2694    1421    1422+
+            126    3161    4690    5130
CTETRA      2000       2    1495    1496    1506    2747    1684    1716+
+           1715    4871    5472    5121
CTETRA      2001       2    2813    2816    2811    2812    4719    4710+
+           5201    3825    3846    3821
CTETRA      2002       2     530     541     540    2611    1322    1321+
+           1320    3342    5483    5238
CTETRA      2003       2      85      86     500    2847     132    1375+
+           1376    5507    5330    4836
CTETRA      2004       2     145     146     534    2606     148    1384+
+           1385    5512    3092    3094
CTETRA      2005       2     500     501     511    2836    1207    1237+
+           1236    4838    4035    4835
CTETRA      2006       2     509     520     519    2733    1263    1262+
+           1261    4161    5501    5557
CTETRA      2007       2     511     512     522    2869    1238    1268+
+           1267    5503    5502    5559
CTETRA      2008       2     417     418     428    2725     974    1004+
+           1003    3887    5519    3883
CTETRA      2009       2     231     232    2769    2788     239    3704+
+           3528    3647    3705    3642
CTETRA      2010       2    2275    2819    2827    2799    5315    5313+
+           5318    5706    5708    5657
CTETRA      2011       2     525     526     536    2853    1278    1308+
+           1307    5240    4669    4358
CTETRA      2012       2     513     514     524    2855    1244    1274+
+           1273    4688    4684    4678
CTETRA      2013       2     524     525     535    2854    1275    1305+
+           1304    4675    5243    5587
CTETRA      2014       2     349     350     360    2859     782     812+
+            811    5601    5039    5041
CTETRA      2015       2      96      97     379    2813     121    1353+
+           1354    5381    5537    4744
CTETRA      2016       2     293     304     303    2810     653     652+
+            651    5173    5530    3808
CTETRA      2017       2     330     331     341    2708     729     759+
+            758    4767    4766    5545
CTETRA      2018       2     339     350     349    2641     783     782+
+            781    4657    4649    5602
CTETRA      2019       2     521     532     531    2869    1297    1296+
+           1295    5506    5234    5227
CTETRA      2020       2     338     339     349    2641     751     781+
+            780    3278    4657    5602
CTETRA      2021       2     311     322     321    2717     705     704+
+            703    3272    4340    3273
CTETRA      2022       2      97      98     368    2645     120    1351+
+           1352    5697    5695    5024
CTETRA      2023       2     303    2736     314    2737    3382    4985+
+            681    3383    3369    4986
CTETRA      2024       2     299     300     310    2681     642     672+
+            671    5571    4724    5563
CTETRA      2025       2     461     472     471    2697    1127    1126+
+           1125    5206    5205    5437
CTETRA      2026       2     350     361     360    2859     814     813+
+            812    5039    5046    5041
CTETRA      2027       2     353    2832    2709    2815    4011    4109+
+           5551    4101    4103    4110
CTETRA      2028       2     390     391     401    2816     897     927+
+            926    5383    3845    5108
CTETRA      2029       2     470     471     481    2864    1123    1153+
+           1152    5354    5436    5676
CTETRA      2030       2     471     472     482    2864    1126    1156+
+           1155    5436    4557    5677
CTETRA      2031       2     420     431     430    2723    1012    1011+
+           1010    3309    4822    3315
CTETRA      2032       2     337     348     347    2641     777     776+
+            775    4658    4655    4397
CTETRA      2033       2      98     378    2653    2645    1435    5178+
+           5733    5695    5577    5025
CTETRA      2034       2     350     351     361    2832     785     815+
+            814    4648    5734    5043
CTETRA      2035       2      94    2722     433    2721    5115    3285+
+           1426    5116    3284    3283
CTETRA      2036       2     100     367     356    2858    1438     832+
+           1439    5576    5216    5268
CTETRA      2037       2     348     349     359    2859     779     809+
+            808    4654    5601    5040
CTETRA      2038       2     141     538     539    2612    1393    1315+
+           1394    4229    4344    5242
CTETRA      2039       2     330    2713    2840    2708    5597    5550+
+           5653    4767    5544    5447
CTETRA      2040       2     337     338     348    2641     748     778+
+            777    4658    3278    4655
CTETRA      2041       2     328    2840    2713    2719    5650    5550+
+           5598    3275    5477    5487
CTETRA      2042       2    1575    2807    2795    2792    3782    4885+
+           3672    3783    3785    4886
CTETRA      2043       2     308     319     318    2838     696     695+
+            694    5391    5432    5527
CTETRA      2044       2     137     542     543    2604    1401    1327+
+           1402    5309    2879    3410
CTETRA      2045       2    2807    2808    2790    2792    3794    3789+
+           4786    3785    3792    3791
CTETRA      2046       2     514     525     524    2855    1276    1275+
+           1274    4684    4753    4678
CTETRA      2047       2     523     524     534    2854    1272    1302+
+           1301    4676    4675    5586
CTETRA      2048       2     146    2604    2607    2873    4353    2885+
+           4352    4915    4914    4910
CTETRA      2049       2       7       1     136    2873      82    2579+
+            158    4913    4903    4902
CTETRA      2050       2      83     533       7    2604    1381    1382+
+            135    4878    3463    4879
CTETRA      2051       2     441     442     452    2817    1042    1072+
+           1071    3855    5135    4510
CTETRA      2052       2     531     532     542    2603    1296    1326+
+           1325    5225    4776    2877
CTETRA      2053       2     444     455     454    2694    1080    1079+
+           1078    5133    4690    3847
CTETRA      2054       2     445    2695    2694    2696    3165    3164+
+           3162    3167    3169    3180
CTETRA      2055       2     477     488     487    2711    1173    1172+
+           1171    4935    5731    5090
CTETRA      2056       2    2804    2806    2786    2775    4640    3775+
+           3769    3762    3768    3772
CTETRA      2057       2     428     439     438    2724    1034    1033+
+           1032    3884    4121    4030
CTETRA      2058       2     137       8       9    2740    2577      30+
+           2576    4851    5460    5461
CTETRA      2059       2     438     439     449    2700    1033    1063+
+           1062    4044    5700    5716
CTETRA      2060       2      17    2874    2513    2873    5607    4905+
+           2521    4911    4909    4908
CTETRA      2061       2     469    2864    2712    2697    5091    4946+
+           5093    5355    4947    4933
CTETRA      2062       2     139      10      11    2741    2573      29+
+           2572    5229    4862    4856
CTETRA      2063       2     138      10     139    2741    2574    2573+
+            155    3398    4862    5229
CTETRA      2064       2     474     485     484    2864    1164    1163+
+           1162    5442    4596    4595
CTETRA      2065       2    2272    2819    2273    2871    5319    5661+
+           2344    5322    5321    4749
CTETRA      2066       2     443     444     454    2694    1048    1078+
+           1077    3860    5133    3847
CTETRA      2067       2     439     450     449    2700    1065    1064+
+           1063    5700    4812    5716
CTETRA      2068       2    1549    2749    2628    2776    5467    4251+
+           5139    5141    5151    5142
CTETRA      2069       2    2845    2836    2867    2846    4825    4833+
+           4594    4152    5210    4614
CTETRA      2070       2     459     460     470    2697    1092    1122+
+           1121    5118    5352    5356
CTETRA      2071       2    2265    2266    2273    2819    2321    2346+
+           2345    3870    5659    5661
CTETRA      2072       2     411     422     421    2824     987     986+
+            985    3914    3917    3920
CTETRA      2073       2     451     452     462    2698    1070    1100+
+           1099    4815    4697    5346
CTETRA      2074       2    2263    2264    2271    2827    2313    2340+
+           2339    5595    5312    5314
CTETRA      2075       2    2271    2272    2279    2871    2341    2362+
+           2361    5320    5322    5645
CTETRA      2076       2    2270    2278    2277    2799    2358    2357+
+           2356    5656    5735    3712
CTETRA      2077       2     459     470     469    2697    1121    1120+
+           1119    5118    5356    5355
CTETRA      2078       2     462     473     472    2865    1130    1129+
+           1128    5347    4559    4558
CTETRA      2079       2     439     440     450    2700    1036    1066+
+           1065    5700    3852    4812
CTETRA      2080       2     267     268     278    2802     582     581+
+            580    5630    5665    3739
CTETRA      2081       2     162     163     261    2857     178    1471+
+           1470    4408    4410    4322
CTETRA      2082       2      33    2270    2277    2799    2456    2356+
+           2459    5623    5656    3712
CTETRA      2083       2    2256    2257    2264    2821    2316    2315+
+           2314    3876    5329    3877
CTETRA      2084       2      32    2270      33    2827    2457    2456+
+             41    3925    5596    3926
CTETRA      2085       2     272     283     282    2678     594     593+
+            592    5509    3571    5569
CTETRA      2086       2    2287    2800    2288    2759    5736    5737+
+           2385    5713    5738    5655
CTETRA      2087       2     186    1648    1649    2661    2174    2117+
+           2175    5101    5279    3613
CTETRA      2088       2    1616    1617    2771    2774    2027    5730+
+           3544    3552    4774    3550
CTETRA      2089       2    1603    1604    2851    2866    1990    4201+
+           5739    5740    5741    5017
CTETRA      2090       2     278    2683    2691    2802    3128    3984+
+           5625    3739    3741    3734
CTETRA      2091       2    1588    1599    1598    2872    1976    1975+
+           1974    5742    4887    5636
CTETRA      2092       2    1546    1547    1557    2785    1829    1859+
+           1858    5466    4637    4642
CTETRA      2093       2    1532    2626    1533    2784    5743    5301+
+           1789    5744    4261    5463
CTETRA      2094       2    1598    1599    1609    2773    1975    2005+
+           2004    5635    4579    4896
CTETRA      2095       2     264     275     274    2689     568     567+
+            565    3138    3703    3139
CTETRA      2096       2    1553    1564    1563    2804    1879    1878+
+           1877    5075    4881    3754
CTETRA      2097       2     424     425     435    2834     993    1023+
+           1022    5190    4047    4040
CTETRA      2098       2    1516    1527    1526    2618    1774    1773+
+           1772    4989    4993    5593
CTETRA      2099       2    1516    1517    1527    2675    1745    1775+
+           1774    4991    5745    4994
CTETRA      2100       2    1491    2768    1492    2668    4529    5475+
+           1668    3577    4171    5264
CTETRA      2101       2     163     189     188    2860    2594     197+
+           2593    4407    5034    5632
CTETRA      2102       2    1492    2848    1503    2668    5474    5639+
+           1706    5264    4170    3584
CTETRA      2103       2       7     146      18    2873     147    2558+
+           2557    4913    4915    4912
CTETRA      2104       2    2266    2818    2267    2819    5670    5746+
+           2325    5659    3869    5709
CTETRA      2105       2     531     542     541    2611    1325    1324+
+           1323    3341    2896    5483
CTETRA      2106       2       8    2511    2516    2740    2520    2542+
+           2543    5460    5308    3395
CTETRA      2107       2      38    2753    2311    2754    4653    3569+
+           2483    4488    3444    5615
CTETRA      2108       2     540    2611     541    2610    5238    5483+
+           1321    5727    2895    5484
CTETRA      2109       2     231    2308     232    2788    2475    2476+
+            239    3647    3646    3705
CTETRA      2110       2     501     502     512    2836    1210    1240+
+           1239    4035    4037    4829
CTETRA      2111       2     520     531     530    2729    1294    1293+
+           1292    4608    3344    3343
CTETRA      2112       2     520     521     531    2869    1265    1295+
+           1294    4607    5506    5227
CTETRA      2113       2    1497    1498    1508    2748    1692    1722+
+           1721    4564    4576    4850
CTETRA      2114       2     233    2753     234    2789    3724    3567+
+            242    3727    3728    4840
CTETRA      2115       2    1507    1518    1517    2671    1749    1748+
+           1747    5345    4473    5728
CTETRA      2116       2     515    2845    2732    2855    4683    4165+
+           4679    4681    4685    4243
CTETRA      2117       2     509     510     520    2847    1234    1264+
+           1263    4160    4600    4605
CTETRA      2118       2    2511    2513    2512    2607    2526    2524+
+           2527    4916    4907    5485
CTETRA      2119       2    2847    2835    2836    2846    4603    4036+
+           4831    4159    4620    5210
CTETRA      2120       2     482     483     493    2868    1157    1187+
+           1186    5679    5681    4976
CTETRA      2121       2     450     461     460    2698    1096    1095+
+           1094    4813    5207    5351
CTETRA      2122       2     440     451     450    2700    1068    1067+
+           1066    3852    3854    4812
CTETRA      2123       2     449    2700     450    2698    5716    4812+
+           1064    5585    4814    4813
CTETRA      2124       2     232    2309     233    2788    2477    2478+
+            240    3705    3731    3725
CTETRA      2125       2    1552    1563    1562    2776    1876    1875+
+           1874    3755    3559    3556
CTETRA      2126       2     440     441    2700    2726    1039    3853+
+           3852    4816    3865    3864
CTETRA      2127       2    1486    1487    1497    2798    1691    1690+
+           1689    4867    5646    4563
CTETRA      2128       2    1498    1509    1508    2748    1724    1723+
+           1722    4576    4569    4850
CTETRA      2129       2     398     409     408    2825     950     949+
+            948    3933    4259    3910
CTETRA      2130       2       4     215       3    1487     217    2254+
+           2243    2216    2215    5690
CTETRA      2131       2      94     401     412    2826    1358     957+
+           1359    5114    5109    5112
CTETRA      2132       2     214     233     234    1485    2255     242+
+           2253    2220    3697    5647
CTETRA      2133       2     416     427     426    2639    1000     999+
+            998    2988    2990    4049
CTETRA      2134       2     399     410     409    2825     953     952+
+            951    4258    4330    4259
CTETRA      2135       2     228     229    2850    2789     238    4183+
+           4461    3721    3722    4180
CTETRA      2136       2     393    2647    2652    2812    5199    3823+
+           5198    5200    3826    3820
CTETRA      2137       2    1583    1584    2791    2793    1934    3668+
+           5288    5289    3669    3671
CTETRA      2138       2    1538    1549    1548    2749    1836    1835+
+           1834    4252    5467    5245
CTETRA      2139       2      62    1509    1498    2748    2211    1724+
+           2212    4577    4569    4576
CTETRA      2140       2    2267    2818    2268    2819    5746    5323+
+           2329    5709    3869    5316
CTETRA      2141       2     358     359     369    2660     807     837+
+            836    5052    5042    5270
CTETRA      2142       2      61    1488    1499    2728    2133    1694+
+           2134    4373    5683    3338
CTETRA      2143       2     353     354    2815    2710     794    4117+
+           4101    5552    4118    4108
CTETRA      2144       2     366    2815     367    2655    3836    5267+
+            831    3839    3838    5218
CTETRA      2145       2    1513    1524    1523    2619    1765    1764+
+           1763    4545    4534    4548
CTETRA      2146       2    2265    2818    2266    2819    3867    5670+
+           2321    3870    3869    5659
CTETRA      2147       2    2856    2662    2637    2830    4483    4286+
+           4273    4276    4289    3998
CTETRA      2148       2     344     355     354    2710     798     797+
+            796    3653    3655    4118
CTETRA      2149       2     318     329     328    2840     724     723+
+            722    5528    5651    5650
CTETRA      2150       2     324    2644    2715    2642    3003    3265+
+           4762    3004    3002    3240
CTETRA      2151       2     208     230     209    1480    2237    2236+
+            224    2229    3526    2230
CTETRA      2152       2     230    2306    2307    2787    2472    2436+
+           2473    5192    3636    3652
CTETRA      2153       2     306     307     317    2838     661     691+
+            690    5393    5390    5567
CTETRA      2154       2     316     317     327    2809     689     719+
+            718    4755    5568    5649
CTETRA      2155       2    1507    1508    1518    2671    1720    1750+
+           1749    5345    5363    4473
CTETRA      2156       2      59    2631    1521    2626    3637    4228+
+           2138    5143    5144    2938
CTETRA      2157       2     319    2840    2838    2839    5529    4078+
+           5432    5434    4077    4076
CTETRA      2158       2     309    2839    2838    2717    5433    4076+
+           5398    5435    4295    4086
CTETRA      2159       2     265     276     275    2689     572     571+
+            569    3149    5643    3703
CTETRA      2160       2    1495    2848    2747    2667    4868    4872+
+           4871    5031    5257    4527
CTETRA      2161       2     427     428    2724    2639    1002    3884+
+           4029    2990    3885    3304
CTETRA      2162       2    2261    2262    2821    2870    2336    5747+
+           5332    5667    4647    5668
CTETRA      2163       2     243     244    2257    2545     257    2508+
+           2510    2549    2548    5608
CTETRA      2164       2      36    2759    2291    2767    3947    5748+
+           2462    3948    3950    5749
CTETRA      2165       2    2284    2285    2292    2759    2376    2397+
+           2396    5750    5751    5498
CTETRA      2166       2     425     436     435    2834    1025    1024+
+           1023    4047    4041    4040
CTETRA      2167       2    2293    2294    2301    2767    2401    2422+
+           2421    5497    5489    5618
CTETRA      2168       2      50      51    1609    2633      77    2154+
+           2155    5752    5009    4895
CTETRA      2169       2      35    2284    2291    2759    2460    2394+
+           2463    5714    5750    5748
CTETRA      2170       2    2292    2300    2299    2767    2418    2417+
+           2416    5499    5699    5493
CTETRA      2171       2    2784    2804    2806    2785    3758    4640+
+           5150    3622    4641    4638
CTETRA      2172       2    2261    2262    2269    2821    2336    2335+
+           2334    5332    5747    5682
CTETRA      2173       2      61      62    1488    2728      66    2132+
+           2133    4373    4371    5683
CTETRA      2174       2     234    1487    1486    2798    5691    1691+
+           4863    4866    5646    4867
CTETRA      2175       2     234    1486    1485    2743    4863    1687+
+           5647    4865    4864    3696
CTETRA      2176       2     207     229     208    1479    2241    2240+
+            225    2231    4551    2232
CTETRA      2177       2    1538    1539    1549    2628    1807    1837+
+           1836    4250    5146    5139
CTETRA      2178       2     228     229    1478    2850     238    4493+
+           4492    4461    4183    4555
CTETRA      2179       2      48    1631    1642    2843    2159    2097+
+           2160    5455    5451    4216
CTETRA      2180       2    1616    1617    1627    2771    2027    2057+
+           2056    3544    5730    3545
CTETRA      2181       2    1613    1624    1623    2638    2047    2046+
+           2045    4513    4506    2983
CTETRA      2182       2     428    2725     429    2724    3883    3294+
+           1005    3884    3293    3292
CTETRA      2183       2    1492    1493    1503    2848    1672    1707+
+           1706    5474    5753    5639
CTETRA      2184       2    1606    2851    1607    2774    4209    4208+
+           1999    4210    4196    4206
CTETRA      2185       2      53    1576    1587    2794    2149    1942+
+           2150    5423    4427    4426
CTETRA      2186       2    1555    1556    1566    2837    1854    1884+
+           1883    4631    4056    4630
CTETRA      2187       2    1621    2633    2638    2634    5425    4519+
+           5426    5450    2969    2982
CTETRA      2188       2    1555    1566    1565    2837    1883    1882+
+           1881    4631    4630    5250
CTETRA      2189       2    1566    1577    1576    2795    1914    1913+
+           1912    4790    4789    5073
CTETRA      2190       2    1604    1605    2851    2866    1993    4202+
+           4201    5741    4572    5017
CTETRA      2191       2    1581    1592    1591    2791    1957    1956+
+           1955    3658    5754    5063
CTETRA      2192       2    1558    1559    1569    2805    1863    1893+
+           1892    4050    5291    5079
CTETRA      2193       2    1530    1531    1541    2626    1785    1815+
+           1814    4463    4263    4265
CTETRA      2194       2    1590    1601    1600    2866    1982    1981+
+           1980    5004    5016    5015
CTETRA      2195       2    1557    1558    1568    2808    1860    1890+
+           1889    4058    4051    4797
CTETRA      2196       2    1544    2804    2784    2785    5078    3758+
+           3630    3632    4641    3622
CTETRA      2197       2    1535    2624    1536    2751    5298    3437+
+           1798    4271    3439    3430
CTETRA      2198       2    1540    1541    1551    2628    1813    1843+
+           1842    5098    5099    5148
CTETRA      2199       2      59    1542    1531    2626    2205    1817+
+           2206    5143    4264    4263
CTETRA      2200       2      60    1520    2672    2631    2208    3301+
+           3323    3639    4465    4480
CTETRA      2201       2    1535    1546    1545    2750    1827    1826+
+           1825    4269    5465    5464
CTETRA      2202       2    1484    1495    1494    2743    1681    1680+
+           1678    5732    4870    4877
CTETRA      2203       2      86     510      87    2835    1411    1412+
+            131    5558    4602    5213
CTETRA      2204       2    1559    1560    1570    2805    1866    1896+
+           1895    5291    3764    5023
CTETRA      2205       2     486     497     496    2868    1198    1197+
+           1196    4952    4951    4961
CTETRA      2206       2     491     502     501    2835    1211    1210+
+           1209    5086    4034    4033
CTETRA      2207       2     489     490     500    2835    1176    1206+
+           1205    5570    5087    4837
CTETRA      2208       2      58    1521    1532    2626    2139    1787+
+           2140    5185    2938    5743
CTETRA      2209       2    1548    1559    1558    2806    1864    1863+
+           1862    5468    5290    4636
CTETRA      2210       2     502     513     512    2836    1242    1241+
+           1240    4037    4830    4829
CTETRA      2211       2     415     426     425    2639     997     996+
+            995    3889    4049    4048
CTETRA      2212       2     480    2711    2864    2868    4958    5083+
+           5094    5085    4954    4598
CTETRA      2213       2     471     482     481    2864    1155    1154+
+           1153    5436    5677    5676
CTETRA      2214       2     449     460     459    2698    1093    1092+
+           1091    5585    5351    5120
CTETRA      2215       2      50    1609    1620    2633    2155    2035+
+           2156    5752    4895    2966
CTETRA      2216       2    1589    1590    2794    2862    1950    4420+
+           4435    4438    4421    4423
CTETRA      2217       2    1590    1600    2872    2866    1980    4890+
+           5002    5004    5015    5005
CTETRA      2218       2    2711    2712    2864    2649    3229    4946+
+           5083    4940    4706    5443
CTETRA      2219       2    1599    1610    1609    2773    2007    2006+
+           2005    4579    4578    4896
CTETRA      2220       2     460     471     470    2697    1124    1123+
+           1122    5352    5437    5356
CTETRA      2221       2     428     429     439    2724    1005    1035+
+           1034    3884    3292    4121
CTETRA      2222       2     401    2816     402    2814    5108    3844+
+            928    5522    4731    3841
CTETRA      2223       2    2271    2871    2278    2799    5320    5755+
+           2359    5658    5707    5735
CTETRA      2224       2    1592    1593    1603    2866    1959    1989+
+           1988    5663    5062    5740
CTETRA      2225       2    1548    1549    1559    2806    1835    1865+
+           1864    5468    5244    5290
CTETRA      2226       2    1582    1593    1592    2791    1960    1959+
+           1958    3660    5061    5754
CTETRA      2227       2    2271    2819    2871    2799    5311    5321+
+           5320    5658    5708    5707
CTETRA      2228       2    1580    1591    1590    2791    1954    1953+
+           1952    5287    5063    4419
CTETRA      2229       2     354     365     364    2815     826     825+
+            824    4117    3835    4102
CTETRA      2230       2     403     404     414    2814     934     964+
+            963    3840    3832    4738
CTETRA      2231       2    1609    1610    1620    2633    2006    2036+
+           2035    4895    4515    2966
CTETRA      2232       2     306     317     316    2809     690     689+
+            688    5402    5568    4755
CTETRA      2233       2     286    2684    2676    2683    5387    5292+
+           5385    5628    3318    4781
CTETRA      2234       2     296     297     307    2685     633     663+
+            662    5295    5296    5388
CTETRA      2235       2     310    2681     311    2717    5563    5431+
+            673    3271    4730    3272
CTETRA      2236       2    1619    1630    1629    2771    2065    2064+
+           2063    5666    3534    3533
CTETRA      2237       2     530     531     541    2611    1293    1323+
+           1322    3342    3341    5483
CTETRA      2238       2    1502    1513    1512    2727    1734    1733+
+           1732    5360    5362    4541
CTETRA      2239       2     137       9     138    2740    2576    2575+
+            156    4851    5461    3394
CTETRA      2240       2    2282    2290    2289    2800    2392    2391+
+           2390    5722    5756    5757
CTETRA      2241       2    2264    2265    2272    2819    2317    2343+
+           2342    3868    3870    5319
CTETRA      2242       2    2259    2260    2818    2876    2328    5715+
+           5758    5584    5702    5336
CTETRA      2243       2     247    2261    2260    2544    2503    2332+
+           2502    2547    5703    5340
CTETRA      2244       2    2693    2801    2677    2842    4123    4779+
+           4457    4129    4128    4444
CTETRA      2245       2    2258    2259    2818    2876    2324    5758+
+           5337    5339    5584    5336
CTETRA      2246       2      31    2263      32    2821    2455    2454+
+             40    5704    3878    5759
CTETRA      2247       2    2281    2289    2288    2800    2389    2388+
+           2387    5760    5757    5737
CTETRA      2248       2      31    2821    2262    2870    5704    5747+
+           2497    5698    5668    4647
CTETRA      2249       2    1610    1611    1621    2638    2009    2039+
+           2038    4518    4522    5426
CTETRA      2250       2    1594    1605    1604    2866    1994    1993+
+           1992    4570    4572    5741
CTETRA      2251       2    2613    2783    2780    2664    4141    4149+
+           4925    3595    3597    5096
CTETRA      2252       2     101     345     102    2644    1441    1442+
+            116    3678    3677    5574
CTETRA      2253       2    1623    1624    1634    2636    2046    2076+
+           2075    2984    4504    4497
CTETRA      2254       2    1629    1630    1640    2770    2064    2094+
+           2093    3532    3531    4291
CTETRA      2255       2      54    1597    1586    2794    2195    1972+
+           2196    5070    5424    5066
CTETRA      2256       2    1597    1608    1607    2872    2003    2002+
+           2001    5516    5761    5008
CTETRA      2257       2    1628    1629    2770    2771    2061    3532+
+           3996    4590    3533    3535
CTETRA      2258       2    1626    1627    1637    2830    2055    2085+
+           2084    4284    4285    4280
CTETRA      2259       2    1648    2844    2856    2661    5762    5523+
+           5278    5279    4138    4278
CTETRA      2260       2    1638    1649    1648    2661    2118    2117+
+           2116    4293    3613    5279
CTETRA      2261       2    1593    1604    1603    2866    1991    1990+
+           1989    5062    5741    5740
CTETRA      2262       2    1602    1603    1613    2851    1987    2017+
+           2016    4586    5739    4588
CTETRA      2263       2    1627    1638    1637    2830    2087    2086+
+           2085    4285    4294    4280
CTETRA      2264       2    1645    2635    2665    2617    4224    4495+
+           5285    4226    4219    4143
CTETRA      2265       2      60    1531    1520    2631    2207    1786+
+           2208    3639    3638    4465
CTETRA      2266       2    1502    2727    2777    2668    5360    3564+
+           3575    3578    4372    3579
CTETRA      2267       2    1628    1639    1638    2830    2090    2089+
+           2088    3997    3989    4294
CTETRA      2268       2    1637    1638    1648    2661    2086    2116+
+           2115    4277    4293    5279
CTETRA      2269       2    2296    2759    2297    2767    4536    3487+
+           2410    3516    3950    3949
CTETRA      2270       2      52    2773    1608    2872    5763    5729+
+           2192    5764    4889    5761
CTETRA      2271       2    1483    1484    1494    2743    1679    1678+
+           1677    3708    5732    4877
CTETRA      2272       2    1578    2863    1579    2862    5071    4434+
+           1919    4892    4433    4425
CTETRA      2273       2    1572    1583    1582    2793    1932    1931+
+           1930    3663    5289    3787
CTETRA      2274       2    1526    2618    1527    2624    5593    4993+
+           1773    5594    4532    4992
CTETRA      2275       2    1500    1501    1511    2727    1699    1729+
+           1728    5259    5470    4540
CTETRA      2276       2    1575    1586    1585    2795    1941    1940+
+           1939    3672    5065    3673
CTETRA      2277       2    1586    1597    1596    2794    1972    1971+
+           1970    5066    5424    5515
CTETRA      2278       2    1591    1602    1601    2866    1985    1984+
+           1983    5064    5664    5016
CTETRA      2279       2     298    2684    2680    2687    5765    3321+
+           5394    5396    3133    5397
CTETRA      2280       2    1519    1520    1530    2631    1754    1784+
+           1783    4467    4465    4466
CTETRA      2281       2    2843    2663    2632    2662    4490    3999+
+           5448    4491    3070    4287
CTETRA      2282       2    1602    1603    2851    2866    1987    5739+
+           4586    5664    5740    5017
CTETRA      2283       2    1515    1526    1525    2618    1771    1770+
+           1769    5067    5593    5068
CTETRA      2284       2    2679    2692    2680    2682    3471    3976+
+           3121    3124    3474    3125
CTETRA      2285       2    1493    1494    1504    2848    1676    1710+
+           1709    5753    4874    5640
CTETRA      2286       2    1551    1562    1561    2776    1873    1872+
+           1871    5089    3556    3555
CTETRA      2287       2    1547    1558    1557    2785    1861    1860+
+           1859    4637    4639    4642
CTETRA      2288       2    1558    1569    1568    2808    1892    1891+
+           1890    4051    4799    4797
CTETRA      2289       2      62      63    1477    2849      65    2129+
+           2131    4378    4477    5641
CTETRA      2290       2    2298    2299    2306    2754    2414    2435+
+           2434    5491    3541    3442
CTETRA      2291       2    1492    2742    1493    2848    5473    5766+
+           1672    5474    4875    5753
CTETRA      2292       2    1530    2625    2631    2623    2957    2962+
+           4466    2958    2933    2961
CTETRA      2293       2      33    2827    2270    2799    3926    5596+
+           2456    5623    5657    5656
CTETRA      2294       2    1566    1567    1577    2863    1885    1915+
+           1914    4625    4627    4791
CTETRA      2295       2     262     273     272    2778     560     559+
+            557    4966    4405    5224
CTETRA      2296       2    1554    1555    1565    2837    1851    1881+
+           1880    5249    4631    5250
CTETRA      2297       2    1532    1533    1543    2784    1789    1819+
+           1818    5744    5463    5076
CTETRA      2298       2    2637    2632    2633    2770    4288    2965+
+           3538    3536    3994    3537
CTETRA      2299       2    1505    1506    1516    2675    1714    1744+
+           1743    5634    5633    4991
CTETRA      2300       2    1504    1505    1515    2674    1711    1741+
+           1740    5183    5349    5184
CTETRA      2301       2    1637    1648    1647    2856    2115    2114+
+           2113    4279    5278    5590
CTETRA      2302       2    1508    1519    1518    2671    1752    1751+
+           1750    5363    5364    4473
CTETRA      2303       2     529     530     540    2611    1290    1320+
+           1319    5231    3342    5238
CTETRA      2304       2     519     520     530    2729    1262    1292+
+           1291    5556    4608    3343
CTETRA      2305       2       1    2511       8    2740    2519    2520+
+             20    4900    5308    5460
CTETRA      2306       2     518     519     529    2729    1259    1289+
+           1288    3361    5556    5233
CTETRA      2307       2      84      85     511    2869     133    1377+
+           1378    5579    5505    5503
CTETRA      2308       2    1621    1632    1631    2634    2069    2068+
+           2067    5450    4501    2977
CTETRA      2309       2    1639    1650    1649    2663    2121    2120+
+           2119    3988    5365    3614
CTETRA      2310       2     510     521     520    2847    1266    1265+
+           1264    4600    5331    4605
CTETRA      2311       2     138     139     541    2610     155    1398+
+           1399    3399    5230    5484
CTETRA      2312       2     183    1651    1652    2664    2180    2126+
+           2181    5368    3611    3594
CTETRA      2313       2     496     506    2867    2846    1224    4593+
+           4611    4613    4153    4614
CTETRA      2314       2     108    2702     258    2762    3189    4062+
+           1330    4069    4061    4060
CTETRA      2315       2      88     488    2711    2875    1415    5731+
+           4621    5710    5619    4956
CTETRA      2316       2     507    2846     508    2733    4163    5767+
+           1228    4164    4156    5768
CTETRA      2317       2     189     190    1645    2617     196    2167+
+           2168    4215    2912    4226
CTETRA      2318       2     490     501     500    2835    1208    1207+
+           1206    5087    4033    4837
CTETRA      2319       2    1619    2773    2633    2771    5012    4897+
+           5010    5666    3547    3540
CTETRA      2320       2     183     184    1651    2781     202    2179+
+           2180    5367    3617    3608
CTETRA      2321       2     522    2854    2869    2855    5562    4673+
+           5559    5561    4663    4672
CTETRA      2322       2      89      90     456    2712     128    1367+
+           1368    4936    5439    5359
CTETRA      2323       2     483     494     493    2868    1189    1188+
+           1187    5681    4973    4976
CTETRA      2324       2     232    1483    1482    2742    3700    1675+
+           5056    3718    3709    3520
CTETRA      2325       2     146    2874    2607    2606    5511    4906+
+           4352    3092    5513    2884
CTETRA      2326       2     458     459     469    2697    1089    1119+
+           1118    4932    5118    5355
CTETRA      2327       2     212     233     213    1484    2250    2251+
+            220    2221    3685    2222
CTETRA      2328       2     455    2694    2695    2699    4690    3164+
+           4691    4700    3181    3183
CTETRA      2329       2     427     428     438    2724    1002    1032+
+           1031    4029    3884    4030
CTETRA      2330       2     438    2724     439    2700    4030    4121+
+           1033    4044    4043    5700
CTETRA      2331       2     430     431     441    2726    1011    1041+
+           1040    3312    4821    3865
CTETRA      2332       2     403     414     413    2814     963     962+
+            961    3840    4738    5379
CTETRA      2333       2     387     388     398    2828     890     920+
+            919    3937    4713    3932
CTETRA      2334       2     298    2680     299    2681    5394    5717+
+            639    5395    3122    5571
CTETRA      2335       2     386     387     397    2822     887     917+
+            916    3938    3936    4708
CTETRA      2336       2    2813    2811    2816    2828    5201    4710+
+           4719    4717    3951    4326
CTETRA      2337       2     215    1486     234    1487    2218    4863+
+           2252    2215    1691    5691
CTETRA      2338       2     214     234     215    1486    2253    2252+
+            218    2217    4863    2218
CTETRA      2339       2     367     378     377    2655     863     862+
+            861    5218    5177    5175
CTETRA      2340       2      98     378      99    2653    1435    1436+
+            119    5733    5178    5536
CTETRA      2341       2      99     367     100    2858    1437    1438+
+            118    5535    5216    5576
CTETRA      2342       2      98     357     368    2653    1350     833+
+           1351    5733    5269    5026
CTETRA      2343       2     336     337     347    2641     745     775+
+            774    2993    4658    4397
CTETRA      2344       2     327     328     338    2640     720     750+
+            749    3276    3268    3270
CTETRA      2345       2     326     327     337    2640     717     747+
+            746    3281    3276    4659
CTETRA      2346       2     285     286     296    2684     602     632+
+            631    5386    5387    5293
CTETRA      2347       2       3    2798     234    2789    5343    4866+
+            241    4839    3691    4840
CTETRA      2348       2    1483    1494    1493    2742    1677    1676+
+           1674    3709    4876    5766
CTETRA      2349       2      63       3    2849    2798    4018    4478+
+           4477    5342    5343    4174
CTETRA      2350       2     215     234       3    1487    2252     241+
+           2254    2215    5691    5690
CTETRA      2351       2     265     266     276    2691     574     573+
+            572    3154    4928    5631
CTETRA      2352       2     497    2867     498    2846    4612    4616+
+           1200    4615    4614    4619
CTETRA      2353       2     275    2683    2676    2689    5626    4781+
+           3702    3703    5644    3158
CTETRA      2354       2     542    2611    2603    2605    2896    5226+
+           2877    2880    2897    2881
CTETRA      2355       2     298    2685    2684    2687    5430    3130+
+           5765    5396    3134    3133
CTETRA      2356       2    2511    2514    2516    2608    2537    2541+
+           2542    5306    5482    3392
CTETRA      2357       2     512     523     522    2855    1270    1269+
+           1268    5560    4677    5561
CTETRA      2358       2    2291    2759    2292    2767    5748    5498+
+           2395    5749    3950    5499
CTETRA      2359       2    2274    2275    2282    2871    2350    2371+
+           2370    5622    5705    5720
CTETRA      2360       2     287     298    2684    2680     637    5765+
+           3317    3320    5394    3321
CTETRA      2361       2    2282    2283    2290    2800    2372    2393+
+           2392    5722    5726    5756
CTETRA      2362       2    2288    2800    2289    2759    5737    5757+
+           2388    5655    5738    3485
CTETRA      2363       2    2260    2261    2268    2818    2332    2331+
+           2330    5715    5333    5323
CTETRA      2364       2    2263    2271    2270    2827    2339    2338+
+           2337    5595    5314    5596
CTETRA      2365       2     246    2544    2260    2876    2546    5340+
+           2505    5583    5405    5702
CTETRA      2366       2    2278    2286    2285    2800    2380    2379+
+           2378    5684    5686    5724
CTETRA      2367       2    2261    2269    2268    2821    2334    2333+
+           2331    5332    5682    5325
CTETRA      2368       2    2260    2544    2261    2876    5340    5703+
+           2332    5702    5405    5334
CTETRA      2369       2    2296    2297    2304    2767    2410    2431+
+           2430    3516    3949    5701
CTETRA      2370       2    2746    2744    2743    2745    3419    3412+
+           4177    4168    3416    3415
CTETRA      2371       2     189    2615    2860    2765    4214    5375+
+           5034    5671    4450    4416
CTETRA      2372       2    1616    1627    1626    2772    2056    2055+
+           2054    3543    3542    5599
CTETRA      2373       2    1585    1586    1596    2794    1940    1970+
+           1969    5001    5066    5515
CTETRA      2374       2     272     273     283    2778     559     595+
+            594    5224    4405    3572
CTETRA      2375       2    2286    2294    2293    2759    2402    2401+
+           2400    5769    5496    5495
CTETRA      2376       2     286     287     297    2684     605     635+
+            634    5387    3317    5294
CTETRA      2377       2      53    2794    1587    2872    5423    4426+
+           2150    5770    5003    5771
CTETRA      2378       2     233    2310     234    2753    2479    2480+
+            242    3724    3568    3567
CTETRA      2379       2    1524    2624    1535    2622    4533    5298+
+           1796    5299    2953    4270
CTETRA      2380       2    1535    1536    1546    2750    1798    1828+
+           1827    4269    3429    5465
CTETRA      2381       2    1534    1535    1545    2750    1795    1825+
+           1824    5126    4269    5464
CTETRA      2382       2     212    1483     232    1484    2224    3700+
+           2249    2221    1679    3686
CTETRA      2383       2    2298    2306    2305    2754    2434    2433+
+           2432    5491    3442    5629
CTETRA      2384       2    2742    2848    2768    2744    4875    4172+
+           4187    3413    4173    4167
CTETRA      2385       2      91      92     434    2694     126    1363+
+           1364    3161    5130    4561
CTETRA      2386       2    1519    1530    1529    2625    1783    1782+
+           1781    4468    2957    4470
CTETRA      2387       2    1481    1482    1492    2742    1671    1670+
+           1669    5476    3520    5473
CTETRA      2388       2    1494    1505    1504    2848    1712    1711+
+           1710    4874    5350    5640
CTETRA      2389       2     362     373     372    2650     848     847+
+            846    3063    3018    5029
CTETRA      2390       2      94     422    2826    2721    1427    3916+
+           5114    5116    3918    3923
CTETRA      2391       2    1490    1501    1500    2777    1700    1699+
+           1698    5060    5469    5028
CTETRA      2392       2     213     233     214    1485    2251    2255+
+            219    2219    3697    2220
CTETRA      2393       2     211    1482     232    1483    2226    5056+
+           2248    2223    1675    3700
CTETRA      2394       2     491    2867    2835    2875    4970    4617+
+           5086    4971    4963    4965
CTETRA      2395       2     501     512     511    2836    1239    1238+
+           1237    4035    4829    4835
CTETRA      2396       2      85     532     521    2869    1408    1297+
+           1409    5505    5234    5506
CTETRA      2397       2     210    1481     231    1482    2228    3511+
+           2239    2225    1671    3510
CTETRA      2398       2    2300    2301    2308    2754    2420    2441+
+           2440    5616    5617    5620
CTETRA      2399       2    2679    2681    2680    2687    3123    3122+
+           3121    4098    4304    5397
CTETRA      2400       2     493     494     504    2867    1188    1218+
+           1217    4975    4972    5304
CTETRA      2401       2      35    2290    2800    2759    2489    5756+
+           5689    5714    3486    5738
CTETRA      2402       2      37    2754    2304    2767    4487    4489+
+           2485    5637    5494    5701
CTETRA      2403       2     291     292     302    2734     618     648+
+            647    3379    3381    4980
CTETRA      2404       2     480     481     491    2868    1151    1181+
+           1180    5085    5678    4969
CTETRA      2405       2     138       9      10    2516    2575      28+
+           2574    3391    2539    2538
CTETRA      2406       2      88     488      89    2711    1415    1416+
+            129    4621    5731    4934
CTETRA      2407       2     484     495     494    2868    1192    1191+
+           1190    4597    4968    4973
CTETRA      2408       2      15    2515    2512    2756    2531    2528+
+           2518    5412    5410    5416
CTETRA      2409       2     144     535     536    2757    1387    1306+
+           1388    4365    4235    4360
CTETRA      2410       2     487     488     498    2875    1172    1202+
+           1201    4949    5619    4964
CTETRA      2411       2     498     499     509    2835    1203    1233+
+           1232    4618    5211    4601
CTETRA      2412       2     477    2712    2711    2649    4705    3229+
+           4935    3016    4706    4940
CTETRA      2413       2     146    2607    2874    2873    4352    4906+
+           5511    4915    4910    4909
CTETRA      2414       2     469     470     480    2864    1120    1150+
+           1149    5091    5354    5094
CTETRA      2415       2     481     492     491    2868    1183    1182+
+           1181    5678    4978    4969
CTETRA      2416       2      96     400      97    2813    1431    1432+
+            121    5381    4715    5537
CTETRA      2417       2     476     487     486    2711    1170    1169+
+           1168    4937    5090    4955
CTETRA      2418       2     418     429     428    2725    1006    1005+
+           1004    5519    3294    3883
CTETRA      2419       2     497     498    2867    2875    1200    4616+
+           4612    4950    4964    4963
CTETRA      2420       2     407     408     418    2823     946     976+
+            975    4331    3909    5517
CTETRA      2421       2     470     481     480    2864    1152    1151+
+           1150    5354    5676    5094
CTETRA      2422       2     388     389     399    2828     893     923+
+            922    4713    4716    4325
CTETRA      2423       2     457     458     468    2712    1086    1116+
+           1115    5357    4930    3228
CTETRA      2424       2     377     388     387    2654     891     890+
+            889    5176    4711    3928
CTETRA      2425       2     386     397     396    2822     916     915+
+            914    3938    4708    3941
CTETRA      2426       2      97     389      98    2645    1433    1434+
+            120    5697    4721    5695
CTETRA      2427       2     303     314     313    2737     681     680+
+            679    3383    4986    3812
CTETRA      2428       2     349     360     359    2859     811     810+
+            809    5601    5041    5040
CTETRA      2429       2       7      18       1    2873    2557      23+
+             82    4913    4912    4903
CTETRA      2430       2       7     136    2604    2873     158    4880+
+           4879    4913    4902    4914
CTETRA      2431       2     276     277     287    2683     575     607+
+            606    5627    3127    3319
CTETRA      2432       2     266     277     276    2691     576     575+
+            573    4928    5624    5631
CTETRA      2433       2     514    2845    2847    2836    4682    4604+
+           4687    4826    4825    4831
CTETRA      2434       2     503     504     514    2845    1216    1246+
+           1245    4823    5303    4682
CTETRA      2435       2    2861    2860    2765    2857    4446    4416+
+           4445    4413    4409    4417
CTETRA      2436       2     145     534     535    2606    1385    1303+
+           1386    5512    3094    4232
CTETRA      2437       2     164     165    2861    2693     176    5669+
+           5673    5662    3150    4456
CTETRA      2438       2     297     308     307    2685     665     664+
+            663    5296    5389    5388
CTETRA      2439       2     273     274    2676    2778     563    3156+
+           3112    4405    4316    3573
CTETRA      2440       2     261    2761    2765    2857    4320    4785+
+           5542    4322    4321    4417
CTETRA      2441       2      37    2304    2297    2767    2485    2431+
+           2486    5637    5701    3949
CTETRA      2442       2      35    2800    2284    2759    5689    3863+
+           2460    5714    5738    5750
CTETRA      2443       2    2257    2265    2264    2818    2318    2317+
+           2315    5328    3867    3866
CTETRA      2444       2    2273    2819    2274    2871    5661    5660+
+           2347    4749    5321    5622
CTETRA      2445       2    2274    2282    2281    2871    2370    2369+
+           2368    5622    5720    4750
CTETRA      2446       2     144      15      16    2874    2563      19+
+           2562    5418    5413    5415
CTETRA      2447       2      32    2269    2262    2821    2495    2335+
+           2496    5759    5682    5747
CTETRA      2448       2    1585    1596    1595    2794    1969    1968+
+           1967    5001    5515    5000
CTETRA      2449       2    1574    1575    1585    2793    1909    1939+
+           1938    5772    3674    3676
CTETRA      2450       2      56    2807    1575    2627    5675    3782+
+           2199    4883    3781    3780
CTETRA      2451       2     167     184     168    2782    2585    2584+
+            173    5526    3618    5377
CTETRA      2452       2     165     166     264    2677     175    1465+
+           1464    3115    4778    3116
CTETRA      2453       2      48    1652      49    2843    2184    2185+
+             79    5455    4133    5458
CTETRA      2454       2    1640    1651    1650    2663    2124    2123+
+           2122    4290    3610    5365
CTETRA      2455       2      50    1641    1630    2632    2187    2096+
+           2188    5773    5274    3993
CTETRA      2456       2    2803    2758    2760    2692    3957    3978+
+           3752    3981    3470    3975
CTETRA      2457       2      48      49    1631    2843      79    2158+
+           2159    5455    5458    5451
CTETRA      2458       2     169     268     267    2702    1456     582+
+           1459    4921    3190    4922
CTETRA      2459       2    1636    1637    1647    2856    2083    2113+
+           2112    4272    4279    5590
CTETRA      2460       2    1635    1636    1646    2856    2080    2110+
+           2109    5429    4272    5589
CTETRA      2461       2      95     390     401    2816    1356     926+
+           1357    5106    5383    5108
CTETRA      2462       2     258     259    2762    2763     546    3495+
+           4060    4063    3496    3498
CTETRA      2463       2     168     183     169    2780    2583    2582+
+            172    5376    5369    4454
CTETRA      2464       2     165    2861    2693    2677    5669    4456+
+           3150    3115    4442    4457
CTETRA      2465       2       6     268     169    2702    1457    1456+
+            171    3191    3190    4921
CTETRA      2466       2     160     259     258    2763    1474     546+
+           1476    3506    3496    4063
CTETRA      2467       2    1617    1618    2771    2774    2030    4589+
+           5730    4774    4207    3550
CTETRA      2468       2     267     278     277    2691     580     579+
+            577    4927    5625    5624
CTETRA      2469       2    1624    1625    1635    2636    2049    2079+
+           2078    4504    4505    5165
CTETRA      2470       2      48    1642    2613    2843    2160    2905+
+           5454    5455    4216    4134
CTETRA      2471       2     271     272     282    2678     555     592+
+            591    3119    5509    5569
CTETRA      2472       2     160     191     161    2616    2599    2598+
+            180    5162    2915    5459
CTETRA      2473       2    2693    2860    2615    2842    5372    5375+
+           5374    4129    4448    4449
CTETRA      2474       2     409     410    2824    2825     952    4329+
+           5380    4259    4330    3907
CTETRA      2475       2      53    1608    1597    2872    2193    2003+
+           2194    5770    5761    5516
CTETRA      2476       2      52    1608      53    2872    2192    2193+
+             75    5764    5761    5770
CTETRA      2477       2    1574    1585    1584    2793    1938    1937+
+           1936    5772    3676    3669
CTETRA      2478       2     107     290     279    2760    1452     615+
+           1453    3982    3977    3742
CTETRA      2479       2      53      54    1576    2794      74    2148+
+           2149    5423    5070    4427
CTETRA      2480       2     260     271     270    2761     552     551+
+            549    5540    5539    5538
CTETRA      2481       2    1533    1534    1544    2750    1792    1822+
+           1821    5125    5126    3631
CTETRA      2482       2    2678    2657    2829    2692    4458    4064+
+           4002    4003    4017    4004
CTETRA      2483       2     271    2761     272    2678    5539    5223+
+            555    3119    4067    5509
CTETRA      2484       2     261     272     271    2761     556     555+
+            553    4320    5223    5539
CTETRA      2485       2     159     258    2702    2763    1331    4062+
+           3499    3502    4063    3503
CTETRA      2486       2    1527    1528    2624    2675    1776    5251+
+           4992    4994    5253    4995
CTETRA      2487       2     381     392     391    2647     901     900+
+            899    5038    4747    3828
CTETRA      2488       2     100     335     346    2796    1346     771+
+           1347    5575    4389    5573
CTETRA      2489       2      55    1554    1565    2807    2145    1880+
+           2146    5591    5248    5247
CTETRA      2490       2     298     309    2685    2681     668    5399+
+           5430    5395    5400    4302
CTETRA      2491       2     298     299     309    2681     639     669+
+            668    5395    5571    5400
CTETRA      2492       2     289     290     300    2682     614     644+
+            643    3491    3980    3480
CTETRA      2493       2     313     314    2720    2737     680    3605+
+           3813    3812    4986    3815
CTETRA      2494       2      58    1553    1542    2784    2203    1848+
+           2204    5638    5074    5136
CTETRA      2495       2      62    2666    1509    2748    4369    4567+
+           2211    4577    3424    4569
CTETRA      2496       2    1537    1538    1548    2749    1804    1834+
+           1833    4257    4252    5245
CTETRA      2497       2     307     318     317    2838     693     692+
+            691    5390    5527    5567
CTETRA      2498       2    1496    1497    1507    2747    1688    1719+
+           1718    5472    4849    5344
CTETRA      2499       2    1503    1504    1514    2674    1708    1738+
+           1737    3582    5183    4987
CTETRA      2500       2    1539    1550    1549    2628    1839    1838+
+           1837    5146    5140    5139
CTETRA      2501       2     359     360     370    2660     810     840+
+            839    5042    3058    5271
CTETRA      2502       2     396     407    2811    2825     944    4333+
+           3939    3942    4334    3943
CTETRA      2503       2     162     261     260    2765    1470     554+
+           1473    4415    5542    5541
CTETRA      2504       2    2514    2516    2608    2741    2541    3392+
+           5482    4857    4861    3397
CTETRA      2505       2     407     418     417    2823     975     974+
+            973    4331    5517    5520
CTETRA      2506       2     351    2752     352    2832    3434    4942+
+            788    5734    4402    5260
CTETRA      2507       2     348     359     358    2859     808     807+
+            806    4654    5040    5051
CTETRA      2508       2     335     336    2643    2642     742    3955+
+           2997    3000    2994    3001
CTETRA      2509       2     101    2644     335    2796    3678    2999+
+           1345    3679    3681    4389
CTETRA      2510       2     512    2869    2847    2855    5502    4606+
+           4828    5560    4672    4689
CTETRA      2511       2     512     513     523    2855    1241    1271+
+           1270    5560    4688    4677
CTETRA      2512       2    2608    2604    2740    2873    3404    5305+
+           3396    5307    4914    4904
CTETRA      2513       2    2858    2653    2655    2841    4381    3033+
+           4399    4382    4384    4388
CTETRA      2514       2     265    2691     276    2689    3154    5631+
+            572    3149    3155    5643
CTETRA      2515       2     382     393     392    2647     904     903+
+            902    4742    5199    4747
CTETRA      2516       2      93     412     423    2722    1360     988+
+           1361    5265    5110    5188
CTETRA      2517       2      87     489    2835    2875    1373    5570+
+           5213    5711    5604    4965
CTETRA      2518       2     529     540     539    2730    1319    1318+
+           1317    5232    5237    5241
CTETRA      2519       2     508     509     519    2733    1231    1261+
+           1260    5768    4161    5557
CTETRA      2520       2      50    1620    2632    2633    2156    2964+
+           5773    5752    2966    2965
CTETRA      2521       2    2816    2814    2826    2824    4731    4733+
+           3912    3904    4735    3915
CTETRA      2522       2     522    2603    2869    2854    5580    5235+
+           5559    5562    5239    4673
CTETRA      2523       2     393     404     403    2812     935     934+
+            933    5200    3833    3843
CTETRA      2524       2     498     509     508    2846    1232    1231+
+           1230    4619    4158    5767
CTETRA      2525       2     388     399     398    2828     922     921+
+            920    4713    4325    3932
CTETRA      2526       2     487    2711     488    2875    5090    5731+
+           1172    4949    4956    5619
CTETRA      2527       2     454     455     465    2699    1079    1109+
+           1108    3848    4700    4701
CTETRA      2528       2     424    2834    2833    2639    5190    4024+
+           4841    3874    4045    4843
CTETRA      2529       2     371     382     381    2646     873     872+
+            871    3012    3011    5036
CTETRA      2530       2     437     438     448    2700    1030    1060+
+           1059    4800    4044    4801
CTETRA      2531       2     415     416     426    2639     968     998+
+            997    3889    2988    4049
CTETRA      2532       2     448     449     459    2698    1061    1091+
+           1090    4846    5585    5120
CTETRA      2533       2      94      95     401    2826     123    1357+
+           1358    5114    5107    5109
CTETRA      2534       2     380     391     390    2647     898     897+
+            896    5037    3828    4746
CTETRA      2535       2     431     442     441    2726    1043    1042+
+           1041    4821    5134    3865
CTETRA      2536       2      50    2632    1630    2633    5773    3993+
+           2188    5752    2965    3992
CTETRA      2537       2     417    2725     428    2639    3887    3883+
+           1003    2989    3305    3885
CTETRA      2538       2     422     433     432    2721    1018    1017+
+           1016    3918    3283    5774
CTETRA      2539       2     420     421     431    2721     983    1013+
+           1012    3311    3919    5193
CTETRA      2540       2     432     433     443    2833    1017    1047+
+           1046    4817    5186    4818
CTETRA      2541       2     392     403     402    2812     932     931+
+            930    4748    3843    3842
CTETRA      2542       2    2742    2744    2768    2745    3413    4167+
+           4187    3414    3416    4169
CTETRA      2543       2     412     413     423    2820     959     989+
+            988    5113    4740    5462
CTETRA      2544       2     327     338     337    2640     749     748+
+            747    3276    3270    4659
CTETRA      2545       2     353    2815    2709    2710    4101    4110+
+           5551    5552    4108    3214
CTETRA      2546       2     103     334     323    2707    1444     739+
+           1445    3246    3207    3259
CTETRA      2547       2     409     410     420    2824     952     982+
+            981    5380    4329    4335
CTETRA      2548       2     317    2809    2840    2719    5568    4081+
+           5648    5600    5478    5477
CTETRA      2549       2    1505    2675    2674    2667    5634    3105+
+           5349    5033    4524    5202
CTETRA      2550       2     325     336     335    2642     743     742+
+            741    4764    2994    3000
CTETRA      2551       2     434     435     445    2701    1021    1051+
+           1050    4806    4039    4808
CTETRA      2552       2     313     314     324    2720     680     710+
+            709    3813    3605    3607
CTETRA      2553       2    1547    2750    2749    2785    5300    3428+
+           5246    4637    3624    3623
CTETRA      2554       2     405    2811     406    2823    4349    4348+
+            940    4248    4332    5611
CTETRA      2555       2     106     107     269    2829     111    1333+
+           1334    3964    3959    3971
CTETRA      2556       2    2861    2860    2693    2842    4446    5372+
+           4456    4443    4448    4129
CTETRA      2557       2     317     318     328    2840     692     722+
+            721    5648    5528    5650
CTETRA      2558       2     461     462     472    2865    1098    1128+
+           1127    5208    5347    4558
CTETRA      2559       2     108     279     268    2802    1454     584+
+           1455    3750    3743    5665
CTETRA      2560       2     472     473     483    2864    1129    1159+
+           1158    4557    4556    5680
CTETRA      2561       2     104     105     291    2734     113    1337+
+           1338    3378    4021    3379
CTETRA      2562       2     452     453    2699    2817    1073    5127+
+           4698    4510    5128    3851
CTETRA      2563       2     136       8     137    2740    2578    2577+
+            157    4901    5460    4851
CTETRA      2564       2      88     499     488    2875    1414    1204+
+           1415    5710    5212    5619
CTETRA      2565       2    2291    2292    2299    2767    2395    2416+
+           2415    5749    5499    5493
CTETRA      2566       2     482     493     492    2868    1186    1185+
+           1184    5679    4976    4978
CTETRA      2567       2     452     453     463    2699    1073    1103+
+           1102    4698    5127    4695
CTETRA      2568       2    2279    2280    2287    2800    2363    2384+
+           2383    5685    5775    5736
CTETRA      2569       2    2294    2302    2301    2767    2424    2423+
+           2422    5489    5490    5618
CTETRA      2570       2    1481    1482    2742    2766    1671    3520+
+           5476    3514    3513    3521
CTETRA      2571       2     209     231     210    1481    2238    2239+
+            223    2227    3511    2228
CTETRA      2572       2     483     484     494    2868    1160    1190+
+           1189    5681    4597    4973
CTETRA      2573       2    1482    1493    1492    2742    1673    1672+
+           1670    3520    5766    5473
CTETRA      2574       2      84     511     522    2869    1378    1267+
+           1379    5579    5503    5559
CTETRA      2575       2     206    1477     228    1478    2235    5687+
+           2245    2233    1655    4492
CTETRA      2576       2    1602    1613    1612    2852    2016    2015+
+           2014    4587    4511    4521
CTETRA      2577       2    1631    1632    2635    2634    2068    4500+
+           2975    2977    4501    2973
CTETRA      2578       2     502     503     513    2836    1213    1243+
+           1242    4037    4824    4830
CTETRA      2579       2     520     521    2869    2847    1265    5506+
+           4607    4605    5331    4606
CTETRA      2580       2      52    1587    1598    2872    2151    1973+
+           2152    5764    5771    5636
CTETRA      2581       2    1593    1594    1604    2866    1962    1992+
+           1991    5062    4570    5741
CTETRA      2582       2    1606    1617    1616    2774    2028    2027+
+           2026    4210    4774    3552
CTETRA      2583       2     245    2544     246    2876    2550    2546+
+            255    5582    5405    5583
CTETRA      2584       2     143      15     144    2756    2564    2563+
+            150    4362    5412    4363
CTETRA      2585       2    1573    1574    1584    2793    1906    1936+
+           1935    3665    5772    3669
CTETRA      2586       2    1573    2627    1574    2792    2942    2941+
+           1906    3662    3784    5776
CTETRA      2587       2     524     535     534    2854    1304    1303+
+           1302    4675    5587    5586
CTETRA      2588       2    1605    1606    1616    2774    1996    2026+
+           2025    4203    4210    3552
CTETRA      2589       2    1544    1545    1555    2786    1823    1853+
+           1852    5777    3626    4634
CTETRA      2590       2     327    2809    2719    2720    5649    5478+
+           3274    3280    4757    4760
CTETRA      2591       2    1513    1514    1524    2619    1736    1766+
+           1765    4545    4546    4534
CTETRA      2592       2      99     100     346    2858     118    1347+
+           1348    5535    5576    5578
CTETRA      2593       2      98      99     357    2653     119    1349+
+           1350    5733    5536    5269
CTETRA      2594       2     347     358     357    2859     805     804+
+            803    4394    5051    5049
CTETRA      2595       2      58    1542      59    2626    2204    2205+
+             69    5185    4264    5143
CTETRA      2596       2    1512    1513    1523    2619    1733    1763+
+           1762    4549    4545    4548
CTETRA      2597       2     526     537     536    2853    1310    1309+
+           1308    4669    4359    4358
CTETRA      2598       2    1535    1536    2750    2751    1798    3429+
+           4269    4271    3430    3432
CTETRA      2599       2    1536    1547    1546    2750    1830    1829+
+           1828    3429    5300    5465
CTETRA      2600       2    1522    1523    1533    2622    1761    1791+
+           1790    2945    4547    5123
CTETRA      2601       2    1523    1524    1534    2622    1764    1794+
+           1793    4547    5299    5124
CTETRA      2602       2     516     527     526    2732    1282    1281+
+           1280    5214    5610    4680
CTETRA      2603       2     144     145     535    2606     149    1386+
+           1387    4662    5512    4232
CTETRA      2604       2    1494    1495    2848    2743    1680    4868+
+           4874    4877    4870    4869
CTETRA      2605       2     483    2864     484    2868    5680    4595+
+           1160    5681    4598    4597
CTETRA      2606       2     376     377     387    2654     859     889+
+            888    3043    5176    3928
CTETRA      2607       2     448    2701    2700    2696    4803    3185+
+           4801    4847    3188    3187
CTETRA      2608       2     458     469     468    2712    1118    1117+
+           1116    4930    5093    3228
CTETRA      2609       2     497     498     508    2846    1200    1230+
+           1229    4615    4619    5767
CTETRA      2610       2     166     185     167    2782    2587    2586+
+            174    4125    3619    5526
CTETRA      2611       2     161     162     260    2765     179    1473+
+           1472    5566    4415    5541
CTETRA      2612       2     481     482     492    2868    1154    1184+
+           1183    5678    5679    4978
CTETRA      2613       2      89     467    2711    2712    1369    3226+
+           4934    4936    3227    3229
CTETRA      2614       2     259     270     269    2762     548     547+
+            545    3495    3970    3969
CTETRA      2615       2     502    2867     503    2836    4832    5441+
+           1213    4037    4833    4824
CTETRA      2616       2     506     517     516    2845    1254    1253+
+           1252    4151    4157    5215
CTETRA      2617       2       1    2511    2740    2873    2519    5308+
+           4900    4903    4917    4904
CTETRA      2618       2     269     270     280    2829     547     586+
+            585    3971    3973    3967
CTETRA      2619       2     464     475     474    2865    1136    1135+
+           1134    5013    5440    5014
CTETRA      2620       2     489     490    2835    2875    1176    5087+
+           5570    5604    5088    4965
CTETRA      2621       2     468     469     479    2711    1117    1147+
+           1146    3225    5092    4957
CTETRA      2622       2     491    2867     502    2835    4970    4832+
+           1211    5086    4617    4034
CTETRA      2623       2       6     169     182    2780     171    2581+
+           2580    5156    4454    5453
CTETRA      2624       2     167     168     266    2801     173    1461+
+           1460    5525    5524    4929
CTETRA      2625       2      90     445     456    2695    1366    1081+
+           1367    5438    3165    5358
CTETRA      2626       2     448    2700     449    2698    4801    5716+
+           1061    4846    4814    5585
CTETRA      2627       2    1487    1498    1497    2798    1693    1692+
+           1690    5646    4574    4563
CTETRA      2628       2     446     447     457    2696    1055    1085+
+           1084    3168    4811    3177
CTETRA      2629       2     464     465    2865    2699    1107    5117+
+           5013    5348    4701    4696
CTETRA      2630       2     456     457     467    2712    1083    1113+
+           1112    5359    5357    3227
CTETRA      2631       2    1503    1514    1513    2620    1737    1736+
+           1735    3583    4544    4543
CTETRA      2632       2     426     437     436    2834    1028    1027+
+           1026    4046    4844    4041
CTETRA      2633       2      93     433    2722    2833    1425    3285+
+           5265    5606    5186    4842
CTETRA      2634       2      95     411      96    2816    1429    1430+
+            122    5106    3911    5382
CTETRA      2635       2     409     420     419    2824     981     980+
+            979    5380    4335    5105
CTETRA      2636       2    1528    1539    1538    2630    1808    1807+
+           1806    5252    5147    4253
CTETRA      2637       2    1497    1508    1507    2747    1721    1720+
+           1719    4849    4848    5344
CTETRA      2638       2     408     419     418    2823     978     977+
+            976    3909    5518    5517
CTETRA      2639       2     396     397     407    2825     915     945+
+            944    3942    4709    4334
CTETRA      2640       2     397     398     408    2825     918     948+
+            947    4709    3933    3910
CTETRA      2641       2     355     366     365    2815     829     828+
+            827    4116    3836    3835
CTETRA      2642       2     377     378     388    2654     862     892+
+            891    5176    5179    4711
CTETRA      2643       2    2804    2806    2775    2776    4640    3768+
+           3762    3756    5152    3557
CTETRA      2644       2    1549    1560    1559    2806    1867    1866+
+           1865    5244    3766    5290
CTETRA      2645       2      57    1553      58    2784    2202    2203+
+             70    5080    5074    5638
CTETRA      2646       2    1517    1528    1527    2675    1777    1776+
+           1775    5745    5253    4994
CTETRA      2647       2    1515    1516    1526    2618    1742    1772+
+           1771    5067    4989    5593
CTETRA      2648       2     385     386     396    2822     884     914+
+            913    3894    3938    3941
CTETRA      2649       2     375     376     386    2654     856     886+
+            885    3042    3043    3899
CTETRA      2650       2     350    2752     351    2832    3435    3434+
+            785    4648    4402    5734
CTETRA      2651       2    1544    2786    2804    2785    5777    3769+
+           5078    3632    3629    4641
CTETRA      2652       2    1589    1600    1599    2872    1979    1978+
+           1977    5018    4890    4887
CTETRA      2653       2     365     366     376    2655     828     858+
+            857    3837    3839    3041
CTETRA      2654       2      99     346     357    2858    1348     802+
+           1349    5535    5578    5047
CTETRA      2655       2     163     164     262    2857     177    1469+
+           1468    4410    4898    4899
CTETRA      2656       2    1590    2794    2791    2866    4420    3667+
+           4419    5004    5006    5007
CTETRA      2657       2    1581    1582    1592    2791    1928    1958+
+           1957    3658    3660    5754
CTETRA      2658       2     105     312     301    2755    1448     677+
+           1449    4728    4729    3478
CTETRA      2659       2    1592    1603    1602    2866    1988    1987+
+           1986    5663    5740    5664
CTETRA      2660       2     294     295     305    2831     627     657+
+            656    4089    4298    4090
CTETRA      2661       2     295     296     306    2685     630     660+
+            659    4296    5295    5392
CTETRA      2662       2    1618    2773    1619    2771    4205    5012+
+           2033    4589    3547    5666
CTETRA      2663       2     139      11     140    2741    2572    2571+
+            154    5229    4856    3405
CTETRA      2664       2    1600    1611    1610    2852    2010    2009+
+           2008    4584    4520    4517
CTETRA      2665       2    1579    1580    1590    2791    1922    1952+
+           1951    4424    5287    4419
CTETRA      2666       2    2296    2304    2303    2767    2430    2429+
+           2428    3516    5701    3517
CTETRA      2667       2      36    2298      37    2767    2465    2464+
+             45    3948    5492    5637
CTETRA      2668       2    1481    1492    1491    2768    1669    1668+
+           1666    3522    5475    4529
CTETRA      2669       2      49      50    1620    2632      78    2156+
+           2157    5174    5773    2964
CTETRA      2670       2    1634    2636    2635    2634    4497    2971+
+           4496    5427    2974    2973
CTETRA      2671       2    1618    2773    2771    2774    4205    3547+
+           4589    4207    3551    3550
CTETRA      2672       2    1640    1641    1651    2663    2095    2125+
+           2124    4290    5275    3610
CTETRA      2673       2      37    2298    2305    2754    2464    2432+
+           2467    4487    5491    5629
CTETRA      2674       2    1565    2807    1566    2795    5247    4628+
+           1882    5654    4885    4790
CTETRA      2675       2    1646    2856    2844    2665    5589    5523+
+           5284    4211    4482    4137
CTETRA      2676       2    2295    2759    2296    2767    5712    4536+
+           2407    3515    3950    3516
CTETRA      2677       2    2285    2286    2293    2759    2379    2400+
+           2399    5751    5769    5495
CTETRA      2678       2    1630    1641    1640    2770    2096    2095+
+           2094    3531    5276    4291
CTETRA      2679       2     406    2811     407    2823    4348    4333+
+            943    5611    4332    4331
CTETRA      2680       2    2280    2288    2287    2800    2386    2385+
+           2384    5775    5737    5736
CTETRA      2681       2    2274    2819    2275    2871    5660    5315+
+           2350    5622    5321    5705
CTETRA      2682       2      32    2821    2263    2827    5759    3878+
+           2454    3925    5327    5595
CTETRA      2683       2    1588    2794    1589    2872    4436    4435+
+           1947    5742    5003    5018
CTETRA      2684       2    2807    2792    2627    2775    3785    3784+
+           3781    3773    3779    3763
CTETRA      2685       2      56    1543    1554    2804    2143    1849+
+           2144    4882    5077    5674
CTETRA      2686       2    1562    1573    1572    2792    1904    1903+
+           1902    3798    3662    3661
CTETRA      2687       2      48     182    1652    2613    2183    2182+
+           2184    5454    3592    3591
CTETRA      2688       2    2275    2276    2283    2799    2353    2374+
+           2373    5706    5719    5718
CTETRA      2689       2     267    2702     268    2802    4922    3190+
+            582    5630    3748    5665
CTETRA      2690       2     212     232     233    1484    2249     240+
+           2250    2221    3686    3685
CTETRA      2691       2    2259    2267    2266    2818    2326    2325+
+           2323    5758    5746    5670
CTETRA      2692       2    1506    1517    1516    2675    1746    1745+
+           1744    5633    5745    4991
CTETRA      2693       2    2746    2798    2849    2745    4178    4174+
+           4366    4168    3694    4176
CTETRA      2694       2      51    1619      52    2773    2190    2191+
+             76    5011    5012    5763
CTETRA      2695       2     233     234    1485    2743     242    5647+
+           3697    3695    4865    3696
CTETRA      2696       2     232    2308    2309    2788    2476    2442+
+           2477    3705    3646    3731
CTETRA      2697       2    1618    1619    1629    2771    2033    2063+
+           2062    4589    5666    3533
CTETRA      2698       2      50    1630      51    2633    2188    2189+
+             77    5752    3992    5009
CTETRA      2699       2    2816    2811    2823    2825    4710    4332+
+           3902    3905    3943    3906
CTETRA      2700       2    1574    2792    1575    2793    5776    3783+
+           1909    5772    3664    3674
CTETRA      2701       2    1565    1566    1576    2795    1882    1912+
+           1911    5654    4790    5073
CTETRA      2702       2    1583    1584    1594    2791    1934    1964+
+           1963    5288    3668    4999
CTETRA      2703       2    2300    2308    2307    2754    2440    2439+
+           2438    5616    5620    3443
CTETRA      2704       2    2275    2283    2282    2799    2373    2372+
+           2371    5706    5718    5721
CTETRA      2705       2    2270    2271    2278    2799    2338    2359+
+           2358    5656    5658    5735
CTETRA      2706       2      51      52    1598    2773      76    2152+
+           2153    5011    5763    5635
CTETRA      2707       2      35    2290    2283    2800    2489    2393+
+           2490    5689    5756    5726
CTETRA      2708       2      36    2297    2290    2759    2487    2412+
+           2488    3947    3487    3486
CTETRA      2709       2      51    1598    1609    2773    2153    2004+
+           2154    5011    5635    4896
CTETRA      2710       2     164     188     187    2860    2592     198+
+           2591    4920    5632    5373
CTETRA      2711       2       5    2613     192    2616    5456    2904+
+            193    5672    2918    2917
CTETRA      2712       2     186     187    1648    2844     199    2173+
+           2174    5100    5281    5762
CTETRA      2713       2    1483    1484    2743    2797    1679    5732+
+           3708    3701    3689    3698
CTETRA      2714       2      31     249       2    2870    2499     251+
+             39    5698    4646    5693
CTETRA      2715       2    1615    1626    1625    2772    2053    2052+
+           2051    4192    5599    5778
CTETRA      2716       2    1486    1497    1496    2743    1689    1688+
+           1686    4864    4562    5471
CTETRA      2717       2    2300    2301    2754    2767    2420    5617+
+           5616    5699    5618    5494
CTETRA      2718       2    1614    1615    1625    2772    2021    2051+
+           2050    4893    4192    5778
CTETRA      2719       2      51    1609    2633    2773    2154    4895+
+           5009    5011    4896    4897
CTETRA      2720       2    2816    2823    2811    2814    3902    4332+
+           4710    4731    4732    3831
CTETRA      2721       2    1605    1606    2851    2866    1996    4209+
+           4202    4572    5022    5017
CTETRA      2722       2    1479    1480    2768    2850    1663    3523+
+           5696    4553    4550    4190
CTETRA      2723       2    1595    1606    1605    2866    1997    1996+
+           1995    4571    5022    4572
CTETRA      2724       2      53    1597    2794    2872    2194    5424+
+           5423    5770    5516    5003
CTETRA      2725       2    1572    1573    1583    2793    1903    1933+
+           1932    3663    3665    5289
CTETRA      2726       2    1584    1585    1595    2794    1937    1967+
+           1966    3666    5001    5000
CTETRA      2727       2      38       3    2311    2753      47    2482+
+           2483    4653    4660    3569
CTETRA      2728       2    1563    1564    1574    2627    1878    1908+
+           1907    2940    4884    2941
CTETRA      2729       2      56    1564      57    2804    2200    2201+
+             71    4882    4881    5081
CTETRA      2730       2    2258    2259    2266    2818    2324    2323+
+           2322    5337    5758    5670
CTETRA      2731       2    1524    2618    1525    2624    4531    5068+
+           1767    4533    4532    5297
CTETRA      2732       2    1530    1541    1540    2629    1814    1813+
+           1812    2955    4464    5097
CTETRA      2733       2    2301    2309    2308    2754    2443    2442+
+           2441    5617    5621    5620
CTETRA      2734       2    1545    1546    1556    2785    1826    1856+
+           1855    3627    5466    3628
CTETRA      2735       2    1514    1525    1524    2618    1768    1767+
+           1766    4988    5068    4531
CTETRA      2736       2    1646    2665    2844    2615    4211    4137+
+           5284    4212    4142    4145
CTETRA      2737       2     163     188     164    2860    2593    2592+
+            177    4407    5632    4920
CTETRA      2738       2    2303    2304    2311    2754    2429    2450+
+           2449    5613    4489    5615
CTETRA      2739       2     228    2305     229    2787    2469    2470+
+            238    3719    3634    3720
CTETRA      2740       2     517     518     528    2729    1256    1286+
+           1285    3351    3361    3358
CTETRA      2741       2       1      18    2513    2873      23    2522+
+           2525    4903    4912    4908
CTETRA      2742       2     145      16      17    2874    2561      22+
+           2560    5510    5415    5607
CTETRA      2743       2     138     541     542    2610    1399    1324+
+           1400    3399    5484    2894
CTETRA      2744       2     144      16     145    2874    2562    2561+
+            149    5418    5415    5510
CTETRA      2745       2     140     539     540    2612    1395    1318+
+           1396    3388    5242    5236
CTETRA      2746       2     341     342     352    2709     760     790+
+            789    5546    3217    5266
CTETRA      2747       2     146    2874      17    2873    5511    5607+
+           2559    4915    4909    4911
CTETRA      2748       2     528     539     538    2730    1316    1315+
+           1314    3359    5241    4664
CTETRA      2749       2     508     519     518    2733    1260    1259+
+           1258    5768    5557    3362
CTETRA      2750       2      83     543      84    2603    1405    1406+
+            134    5310    3409    4775
CTETRA      2751       2     528     529     539    2730    1287    1317+
+           1316    3359    5232    5241
CTETRA      2752       2    2856    2665    2636    2662    4482    4498+
+           4484    4483    3075    4485
CTETRA      2753       2     486    2864    2711    2868    5084    5083+
+           4955    4952    4598    4954
CTETRA      2754       2     146      17      18    2873    2559      21+
+           2558    4915    4911    4912
CTETRA      2755       2      85     521      86    2847    1409    1410+
+            132    5507    5331    5330
CTETRA      2756       2     473     484     483    2864    1161    1160+
+           1159    4556    4595    5680
CTETRA      2757       2      87     478     489    2875    1372    1174+
+           1373    5711    5603    5604
CTETRA      2758       2     448    2698     459    2696    4846    5120+
+           1090    4847    3174    5119
CTETRA      2759       2     474     475     485    2864    1135    1165+
+           1164    5442    5082    4596
CTETRA      2760       2     485    2864     486    2868    4596    5084+
+           1166    4599    4598    4952
CTETRA      2761       2     532     543     542    2603    1328    1327+
+           1326    4776    3409    2877
CTETRA      2762       2     465     466     476    2649    1110    1140+
+           1139    5353    3015    3017
CTETRA      2763       2     485     486     496    2868    1166    1196+
+           1195    4599    4952    4961
CTETRA      2764       2     302     303     313    2737     649     679+
+            678    4979    3383    3812
CTETRA      2765       2     188     189    1646    2615     197    2169+
+           2170    5283    4214    4212
CTETRA      2766       2    1625    1626    1636    2637    2052    2082+
+           2081    4503    4282    4274
CTETRA      2767       2     346     347     357    2858     773     803+
+            802    5578    5053    5047
CTETRA      2768       2     435     436     446    2701    1024    1054+
+           1053    4039    4038    4809
CTETRA      2769       2     469     480     479    2711    1149    1148+
+           1147    5092    4958    4957
CTETRA      2770       2     431    2721     432    2723    5193    5774+
+           1014    4822    3287    5187
CTETRA      2771       2     418     419     429    2725     977    1007+
+           1006    5519    3306    3294
CTETRA      2772       2     160     161     259    2765     180    1475+
+           1474    3508    5566    5153
CTETRA      2773       2     159     160     258    2763     181    1476+
+           1331    3502    3506    4063
CTETRA      2774       2     403     404    2814    2812     934    3832+
+           3840    3843    3833    3834
CTETRA      2775       2     161     260     259    2765    1472     550+
+           1475    5566    5541    5153
CTETRA      2776       2     264     265     275    2689     570     569+
+            568    3138    3149    3703
CTETRA      2777       2     394     395     405    2811     909     939+
+            938    3818    3944    4349
CTETRA      2778       2     341    2752    2713    2709    4941    5548+
+           5543    5546    4401    3231
CTETRA      2779       2     432    2721     433    2723    5774    3283+
+           1017    5187    3287    3286
CTETRA      2780       2    1635    2856    1646    2665    5429    5589+
+           2109    5164    4482    4211
CTETRA      2781       2     310     321     320    2717     702     701+
+            700    3271    3273    4770
CTETRA      2782       2     288     289     299    2680     611     641+
+            640    5565    3488    5717
CTETRA      2783       2     102    2715     324    2644    5444    4762+
+           1343    5574    3265    3003
CTETRA      2784       2     289    2680    2683    2760    3488    3322+
+           5564    3490    3489    3738
CTETRA      2785       2     101     324     335    2644    1344     740+
+           1345    3678    3003    2999
CTETRA      2786       2     353     354     364    2815     794     824+
+            823    4101    4117    4102
CTETRA      2787       2     356     367     366    2815     832     831+
+            830    4106    5267    3836
CTETRA      2788       2     282     293     292    2657     622     621+
+            620    3038    5171    3039
CTETRA      2789       2     341     352    2752    2709     789    4942+
+           4941    5546    5266    4401
CTETRA      2790       2     305     306     316    2809     658     688+
+            687    4982    5402    4755
CTETRA      2791       2     288     299     298    2680     640     639+
+            638    5565    5717    5394
CTETRA      2792       2     164    2861     263    2857    5673    4411+
+           1466    4898    4413    4317
CTETRA      2793       2     364     365     375    2655     825     855+
+            854    3054    3837    3040
CTETRA      2794       2     325     326     336    2640     714     744+
+            743    3760    3281    2991
CTETRA      2795       2     102     345     334    2644    1442     770+
+           1443    5574    3677    3194
CTETRA      2796       2    1533    1544    2784    2750    1821    3630+
+           5463    5125    3631    3621
CTETRA      2797       2     322     333     332    2705     736     735+
+            734    4773    4343    3221
CTETRA      2798       2     347     348     358    2859     776     806+
+            805    4394    4654    5051
CTETRA      2799       2     100     101     335    2796     117    1345+
+           1346    5575    3679    4389
CTETRA      2800       2     363     364     374    2656     822     852+
+            851    5221    3055    3052
CTETRA      2801       2     340     341     351    2752     757     787+
+            786    3433    4941    3434
CTETRA      2802       2     311     312     322    2718     676     706+
+            705    3458    3453    4341
CTETRA      2803       2     379     380     390    2647     866     896+
+            895    4745    5037    4746
CTETRA      2804       2     315     316     326    2720     686     716+
+            715    4756    3723    3279
CTETRA      2805       2     351     352     362    2832     788     818+
+            817    5734    5260    5262
CTETRA      2806       2     326     337     336    2640     746     745+
+            744    3281    4659    2991
CTETRA      2807       2    1562    1563    1573    2627    1875    1905+
+           1904    3799    2940    2942
CTETRA      2808       2    1574    2627    1575    2792    2941    3780+
+           1909    5776    3784    3783
CTETRA      2809       2     333     344     343    2704     767     766+
+            765    3243    5514    5553
CTETRA      2810       2     303     304     314    2736     652     682+
+            681    3382    5531    4985
CTETRA      2811       2     391     392     402    2812     900     930+
+            929    3829    4748    3842
CTETRA      2812       2     100     356     101    2796    1439    1440+
+            117    5575    4104    3679
CTETRA      2813       2     293     294     304    2810     624     654+
+            653    5173    4088    5530
CTETRA      2814       2     319     330    2840    2839     727    5653+
+           5529    5434    5445    4077
CTETRA      2815       2     274     275     285    2676     567     601+
+            600    3156    3702    5384
CTETRA      2816       2     381     382     392    2647     872     902+
+            901    5038    4742    4747
CTETRA      2817       2    2796    2858    2815    2841    5054    4400+
+           4105    4119    4382    4115
CTETRA      2818       2      56    2804    2807    2627    4882    3771+
+           5675    4883    3761    3781
CTETRA      2819       2     371     372     382    2648     844     874+
+            873    3013    5030    3014
CTETRA      2820       2     372     383     382    2648     876     875+
+            874    5030    5534    3014
CTETRA      2821       2     383     394     393    2652     907     906+
+            905    5533    3816    5198
CTETRA      2822       2     284     295     294    2831     628     627+
+            626    5169    4298    4089
CTETRA      2823       2     139     140     540    2610     154    1396+
+           1397    5230    3389    5727
CTETRA      2824       2     392     393     403    2812     903     933+
+            932    4748    5200    3843
CTETRA      2825       2      11    2516    2514    2741    2540    2541+
+           2535    4856    4861    4857
CTETRA      2826       2      93      94     412    2722     124    1359+
+           1360    5265    5115    5110
CTETRA      2827       2    2294    2759    2295    2767    5496    5712+
+           2404    5489    3950    3515
CTETRA      2828       2    2275    2827    2276    2799    5318    5725+
+           2353    5706    5657    5719
CTETRA      2829       2    2263    2821    2264    2827    3878    3877+
+           2313    5595    5327    5312
CTETRA      2830       2    2626    2751    2749    2630    3445    3431+
+           4260    2950    3446    4254
CTETRA      2831       2     405     406     416    2823     940     970+
+            969    4248    5611    5521
CTETRA      2832       2     421     422     432    2721     986    1016+
+           1015    3919    3918    5774
CTETRA      2833       2     245    2259    2258    2876    2507    2324+
+           2506    5582    5584    5339
CTETRA      2834       2    2804    2807    2627    2775    3771    3781+
+           3761    3762    3773    3763
CTETRA      2835       2      90     477     466    2712    1418    1142+
+           1419    5439    4705    4704
CTETRA      2836       2     233    1485    1484    2797    3697    1683+
+           3685    3688    3699    3689
CTETRA      2837       2     210     231     211    1482    2239    2247+
+            222    2225    3510    2226
CTETRA      2838       2     453     464     463    2699    1105    1104+
+           1103    5127    5348    4695
CTETRA      2839       2     452     463     462    2698    1102    1101+
+           1100    4697    4694    5346
CTETRA      2840       2     442     443     453    2817    1045    1075+
+           1074    5135    3861    5128
CTETRA      2841       2     322     323     333    2707     707     737+
+            736    4342    3259    3242
CTETRA      2842       2    1508    1509    2671    2748    1723    4568+
+           5363    4850    4569    4528
CTETRA      2843       2    1482    1483    1493    2742    1675    1674+
+           1673    3520    3709    5766
CTETRA      2844       2     480     491     490    2875    1180    1179+
+           1178    4960    4971    5088
CTETRA      2845       2    1521    1522    1532    2622    1758    1788+
+           1787    2926    2945    5302
CTETRA      2846       2    1480    1491    1490    2768    1665    1664+
+           1662    3523    4529    5209
CTETRA      2847       2     503     514     513    2836    1245    1244+
+           1243    4824    4826    4830
CTETRA      2848       2     495     506     505    2867    1223    1222+
+           1221    4967    4593    4592
CTETRA      2849       2     472     483     482    2864    1158    1157+
+           1156    4557    5680    5677
CTETRA      2850       2     208    1479     229    1480    2232    4551+
+           2240    2229    1663    4552
CTETRA      2851       2     492     503     502    2867    1214    1213+
+           1212    4977    5441    4832
CTETRA      2852       2     209     230     231    2766    2236     235+
+           2238    3518    3527    3512
CTETRA      2853       2    1599    1600    1610    2852    1978    2008+
+           2007    4580    4584    4517
CTETRA      2854       2    1588    1589    1599    2872    1947    1977+
+           1976    5742    5018    4887
CTETRA      2855       2      52      53    1587    2872      75    2150+
+           2151    5764    5770    5771
CTETRA      2856       2    1617    1628    1627    2771    2059    2058+
+           2057    5730    4590    3545
CTETRA      2857       2    1577    1578    1588    2862    1916    1946+
+           1945    5072    4892    4437
CTETRA      2858       2     376     387     386    2654     888     887+
+            886    3043    3928    3899
CTETRA      2859       2    1600    2851    2872    2866    4582    4888+
+           4890    5015    5017    5005
CTETRA      2860       2     384     395     394    2652     910     909+
+            908    3029    3945    3816
CTETRA      2861       2    1560    1561    1571    2805    1869    1899+
+           1898    3764    3778    3796
CTETRA      2862       2      49    1652    1641    2843    2185    2127+
+           2186    5458    4133    5508
CTETRA      2863       2     190     191    1644    2617     195    2165+
+           2166    2912    2916    4225
CTETRA      2864       2    1635    1646    1645    2665    2109    2108+
+           2107    5164    4211    5285
CTETRA      2865       2     366     377     376    2655     860     859+
+            858    3839    5175    3041
CTETRA      2866       2     366     367     377    2655     831     861+
+            860    3839    5218    5175
CTETRA      2867       2     190    1644    1645    2617    2166    2105+
+           2167    2912    4225    4226
CTETRA      2868       2    1636    1647    1646    2856    2112    2111+
+           2110    4272    5590    5589
CTETRA      2869       2    1614    1625    1624    2772    2050    2049+
+           2048    4893    5778    4507
CTETRA      2870       2    2826    2722    2725    2820    5111    3298+
+           3922    4737    3872    3880
CTETRA      2871       2    1583    1594    1593    2791    1963    1962+
+           1961    5288    4999    5061
CTETRA      2872       2      51    1630    1619    2633    2189    2065+
+           2190    5009    3992    5010
CTETRA      2873       2     421     432     431    2721    1015    1014+
+           1013    3919    5774    5193
CTETRA      2874       2     379    2646     380    2647    4860    4859+
+            866    4745    3006    5037
CTETRA      2875       2     368     369     379    2646     835     865+
+            864    5027    4858    4860
CTETRA      2876       2    1603    1614    1613    2851    2019    2018+
+           2017    5739    4894    4588
CTETRA      2877       2    1607    1608    2773    2872    2002    5729+
+           4204    5008    5761    4889
CTETRA      2878       2    1564    1575    1574    2627    1910    1909+
+           1908    4884    3780    2941
CTETRA      2879       2    1620    2633    1621    2634    2966    5425+
+           2037    2967    2969    5450
CTETRA      2880       2     384     385    2652    2659     881    3896+
+           3029    3892    3897    3893
CTETRA      2881       2    1559    1570    1569    2805    1895    1894+
+           1893    5291    5023    5079
CTETRA      2882       2    1565    1566    2807    2837    1882    4628+
+           5247    5250    4630    4629
CTETRA      2883       2      55      56    1554    2807      72    2144+
+           2145    5591    5675    5248
CTETRA      2884       2    1544    1555    1554    2804    1852    1851+
+           1850    5078    4633    5674
CTETRA      2885       2     103     302     313    2737    1340     678+
+           1341    3800    4979    3812
CTETRA      2886       2      62    2746    1498    2798    4370    4575+
+           2212    5341    4178    4574
CTETRA      2887       2    1478    1479    1489    2768    1659    1658+
+           1657    5195    5696    4374
CTETRA      2888       2    1491    1502    1501    2777    1703    1702+
+           1701    3576    3575    5469
CTETRA      2889       2    1489    1500    1499    2728    1697    1696+
+           1695    4377    3339    3338
CTETRA      2890       2    2848    2747    2667    2744    4872    4527+
+           5257    4173    3425    3563
CTETRA      2891       2      59      60    1510    2631      68    2136+
+           2137    3637    3639    4227
CTETRA      2892       2    1511    1512    1522    2619    1730    1760+
+           1759    4538    4549    2943
CTETRA      2893       2    1529    1530    1540    2629    1782    1812+
+           1811    4469    2955    5097
CTETRA      2894       2    1528    2675    1529    2629    5253    5256+
+           1779    5254    5255    4469
CTETRA      2895       2      57    1532    1543    2784    2141    1818+
+           2142    5080    5744    5076
CTETRA      2896       2    1521    1532    2626    2622    1787    5743+
+           2938    2926    5302    2937
CTETRA      2897       2    2807    2795    2790    2863    4885    3682+
+           4786    4787    4431    4788
CTETRA      2898       2    1503    2620    1513    2727    3583    4543+
+           1735    5361    4542    5362
CTETRA      2899       2    1519    2671    2672    2625    5364    3097+
+           4479    4468    3096    3095
CTETRA      2900       2    1534    1545    1544    2750    1824    1823+
+           1822    5126    5464    3631
CTETRA      2901       2    2784    2806    2749    2785    5150    5149+
+           3620    3622    4638    3623
CTETRA      2902       2    1517    1518    2675    2671    1748    4471+
+           5745    5728    4473    4472
CTETRA      2903       2    1493    1504    1503    2848    1709    1708+
+           1707    5753    5640    5639
CTETRA      2904       2    1480    1481    1491    2768    1667    1666+
+           1665    3523    3522    4529
CTETRA      2905       2    2784    2628    2749    2776    4262    4251+
+           3620    3759    5142    5151
CTETRA      2906       2     228    1478    1477    2849    4492    1655+
+           5687    4462    4554    5641
CTETRA      2907       2    1527    1538    1537    2624    1805    1804+
+           1803    4992    4256    4255
CTETRA      2908       2    1539    1540    1550    2628    1810    1840+
+           1839    5146    5098    5140
CTETRA      2909       2    1517    1518    1528    2675    1748    1778+
+           1777    5745    4471    5253
CTETRA      2910       2     491     492    2867    2868    1182    4977+
+           4970    4969    4978    4962
CTETRA      2911       2      85     500     511    2847    1376    1236+
+           1377    5507    4836    4834
CTETRA      2912       2    1569    1570    1580    2790    1894    1924+
+           1923    4792    4943    4793
CTETRA      2913       2     335     336    2796    2643     742    5572+
+           4389    2997    3955    3952
CTETRA      2914       2      89     456     467    2712    1368    1112+
+           1369    4936    5359    3227
CTETRA      2915       2    1541    2626    1542    2784    4265    4264+
+           1816    5137    4261    5136
CTETRA      2916       2    1545    1556    1555    2786    1855    1854+
+           1853    3626    3625    4634
CTETRA      2917       2      55    1575      56    2807    2198    2199+
+             72    5591    3782    5675
CTETRA      2918       2     451     452    2698    2817    1070    4697+
+           4815    3856    4510    4845
CTETRA      2919       2     457     468     467    2712    1115    1114+
+           1113    5357    3228    3227
CTETRA      2920       2      54    1586      55    2795    2196    2197+
+             73    5069    5065    5592
CTETRA      2921       2    1601    1602    2851    2866    1984    4586+
+           4583    5016    5664    5017
CTETRA      2922       2    1575    2792    2795    2793    3783    4886+
+           3672    3674    3664    3675
CTETRA      2923       2    1570    2805    1571    2790    5023    3796+
+           1897    4943    3788    3795
CTETRA      2924       2    1569    1580    1579    2863    1923    1922+
+           1921    4794    4795    4434
CTETRA      2925       2     169    2702    2801    2842    4921    4439+
+           4452    4455    4440    4128
CTETRA      2926       2     437     438    2700    2834    1030    4044+
+           4800    4844    4032    4025
CTETRA      2927       2    1611    1622    1621    2638    2041    2040+
+           2039    4522    5449    5426
CTETRA      2928       2    1582    1583    1593    2791    1931    1961+
+           1960    3660    5288    5061
CTETRA      2929       2    1599    2851    1600    2852    4581    4582+
+           1978    4580    4199    4584
CTETRA      2930       2      93    2722     423    2833    5265    5188+
+           1361    5606    4842    5189
CTETRA      2931       2     294     305     304    2810     656     655+
+            654    4088    4087    5530
CTETRA      2932       2    2722    2833    2724    2639    4842    4027+
+           3299    3303    4843    3304
CTETRA      2933       2      52    1619    1608    2773    2191    2034+
+           2192    5763    5012    5729
CTETRA      2934       2     406     407     417    2823     943     973+
+            972    5611    4331    5520
CTETRA      2935       2     408     419    2823    2824     978    5518+
+           3909    3908    5105    3903
CTETRA      2936       2    1610    2633    2773    2852    4515    4897+
+           4578    4517    4516    4200
CTETRA      2937       2     423     424     434    2833     990    1020+
+           1019    5189    4841    4805
CTETRA      2938       2    1624    1625    2637    2772    2049    4503+
+           4502    4507    5778    4508
CTETRA      2939       2     374     375     385    2659     853     883+
+            882    3049    3900    3897
CTETRA      2940       2     394    2811     404    2812    3818    3830+
+            936    3819    3821    3833
CTETRA      2941       2    1629    1640    1639    2770    2093    2092+
+           2091    3532    4291    3986
CTETRA      2942       2    2282    2799    2283    2800    5721    5718+
+           2372    5722    3714    5726
CTETRA      2943       2    1628    1629    1639    2770    2061    2091+
+           2090    3996    3532    3986
CTETRA      2944       2     281    2678     282    2657    3120    5569+
+            590    3037    4458    3038
CTETRA      2945       2     395     396    2811    2822     912    3939+
+           3944    3946    3941    3940
CTETRA      2946       2    2722    2724    2833    2723    3299    4027+
+           4842    3288    3296    4820
CTETRA      2947       2     369     370     380    2646     838     868+
+            867    4858    5273    4859
CTETRA      2948       2    2618    2624    2619    2621    4532    4535+
+           2920    2923    2935    2924
CTETRA      2949       2    1526    1527    1537    2624    1773    1803+
+           1802    5594    4992    4255
CTETRA      2950       2     312     323     322    2718     708     707+
+            706    3453    3256    4341
CTETRA      2951       2    1528    1529    1539    2629    1779    1809+
+           1808    5254    4469    5145
CTETRA      2952       2      54      55    1565    2795      73    2146+
+           2147    5069    5592    5654
CTETRA      2953       2      56    1575    1564    2627    2199    1910+
+           2200    4883    3780    4884
CTETRA      2954       2      97    2645     379    2813    5697    4752+
+           1353    5537    4722    4744
CTETRA      2955       2     186    2844    1648    2661    5100    5762+
+           2174    5101    4138    5279
CTETRA      2956       2     296     307     306    2685     662     661+
+            660    5295    5388    5392
CTETRA      2957       2     169     183     182    2780    2582     203+
+           2581    4454    5369    5453
CTETRA      2958       2      99     378     367    2653    1436     863+
+           1437    5536    5178    5217
CTETRA      2959       2     101     356     345    2796    1440     801+
+           1441    3679    4104    3680
CTETRA      2960       2     213    1484     233    1485    2222    3685+
+           2251    2219    1683    3697
CTETRA      2961       2     331     332     342    2704     732     762+
+            761    3222    3224    3218
CTETRA      2962       2     332     333     343    2704     735     765+
+            764    3224    3243    5553
CTETRA      2963       2     333     334     344    2704     738     768+
+            767    3243    3195    5514
CTETRA      2964       2     282     283     293    2657     593     623+
+            622    3038    4093    5171
CTETRA      2965       2    1478    2768    2849    2850    5195    4191+
+           4554    4555    4190    4189
CTETRA      2966       2    2268    2269    2276    2827    2333    2355+
+           2354    5317    3927    5725
CTETRA      2967       2     283     284     294    2831     596     626+
+            625    4096    5169    4089
CTETRA      2968       2    2719    2706    2703    2642    5479    3202+
+           5488    4761    3241    3230
CTETRA      2969       2     103     104     302    2737     114    1339+
+           1340    3800    3375    4979
CTETRA      2970       2    1544    1555    2804    2786    1852    4633+
+           5078    5777    4634    3769
CTETRA      2971       2     140      12     141    2739    2570    2569+
+            153    4230    3386    3385
CTETRA      2972       2     140     141     539    2612     153    1394+
+           1395    3388    4229    5242
CTETRA      2973       2     301     312     311    2755     677     676+
+            675    3478    4729    3457
CTETRA      2974       2    2291    2299    2298    2767    2415    2414+
+           2413    5749    5493    5492
CTETRA      2975       2    2284    2800    2285    2759    3863    5724+
+           2376    5750    5738    5751
CTETRA      2976       2    2732    2847    2869    2855    4827    4606+
+           5504    4243    4689    4672
CTETRA      2977       2    2511    2512    2514    2608    2527    2529+
+           2537    5306    5422    5482
CTETRA      2978       2    2286    2800    2287    2759    5686    5736+
+           2382    5769    5738    5713
CTETRA      2979       2      36    2291    2298    2767    2462    2413+
+           2465    3948    5749    5492
CTETRA      2980       2    2285    2800    2286    2759    5724    5686+
+           2379    5751    5738    5769
CTETRA      2981       2     141      13     142    2739    2568    2567+
+            152    3385    3387    5419
CTETRA      2982       2     140      11      12    2741    2571      26+
+           2570    3405    4856    4854
CTETRA      2983       2    1488    1489    1499    2728    1656    1695+
+           1694    5683    4377    3338
CTETRA      2984       2    2257    2258    2265    2818    2320    2319+
+           2318    5328    5337    3867
CTETRA      2985       2     208     229     230    1480    2240     236+
+           2237    2229    4552    3526
CTETRA      2986       2      12    2514    2515    2739    2534    2530+
+           2536    3386    5481    5480
CTETRA      2987       2     143      14      15    2756    2565      24+
+           2564    4362    5411    5412
CTETRA      2988       2    2289    2800    2290    2759    5757    5756+
+           2391    3485    5738    3486
CTETRA      2989       2    2514    2608    2739    2741    5482    4355+
+           5481    4857    3397    4855
CTETRA      2990       2    2281    2282    2289    2800    2369    2390+
+           2389    5760    5722    5757
CTETRA      2991       2    1546    2750    1547    2785    5465    5300+
+           1829    5466    3624    4637
CTETRA      2992       2      37    2305      38    2754    2467    2466+
+             46    4487    5629    4488
CTETRA      2993       2    2284    2292    2291    2759    2396    2395+
+           2394    5750    5498    5748
CTETRA      2994       2      37    2298    2754    2767    2464    5491+
+           4487    5637    5492    5494
CTETRA      2995       2     142      14     143    2756    2566    2565+
+            151    5409    5411    4362
CTETRA      2996       2     513     524     523    2855    1273    1272+
+           1271    4688    4678    4677
CTETRA      2997       2    2286    2287    2294    2759    2382    2403+
+           2402    5769    5713    5496
CTETRA      2998       2     142     143     537    2757     151    1390+
+           1391    5420    4364    4361
CTETRA      2999       2      38    2311    2304    2754    2483    2450+
+           2484    4488    5615    4489
CTETRA      3000       2    2280    2281    2288    2800    2366    2387+
+           2386    5775    5760    5737
CTETRA      3001       2      16    2512    2513    2874    2517    2524+
+           2523    5415    5414    4905
CTETRA      3002       2     140    2612     540    2610    3388    5236+
+           1396    3389    2903    5727
CTETRA      3003       2      33      34    2276    2799      42    2492+
+           2493    5623    3711    5719
CTETRA      3004       2      31    2256    2263    2821    2451    2312+
+           2455    5704    3876    3878
CTETRA      3005       2    2257    2821    2545    2876    5329    5688+
+           5608    5338    5335    5406
CTETRA      3006       2     142      13      14    2515    2567      25+
+           2566    5408    2533    2532
CTETRA      3007       2    1610    1621    1620    2633    2038    2037+
+           2036    4515    5425    2966
CTETRA      3008       2    2277    2799    2278    2800    3712    5735+
+           2357    3715    3714    5684
CTETRA      3009       2      49    1641      50    2632    2186    2187+
+             78    5174    5274    5773
CTETRA      3010       2    1577    1588    1587    2862    1945    1944+
+           1943    5072    4437    4429
CTETRA      3011       2       6       5     159    2616      81    2602+
+            170    5160    5672    5161
CTETRA      3012       2    2719    2706    2708    2703    5479    3204+
+           5532    5488    3202    3206
CTETRA      3013       2    1634    1635    1645    2665    2077    2107+
+           2106    4494    5164    5285
CTETRA      3014       2    1557    1558    2786    2785    1860    4052+
+           4059    4642    4639    3629
CTETRA      3015       2    2637    2638    2633    2634    2980    4519+
+           3538    2981    2982    2969
CTETRA      3016       2    1544    2750    1545    2785    3631    5464+
+           1823    3632    3624    3627
CTETRA      3017       2    1623    1634    1633    2634    2075    2074+
+           2073    2985    5427    2987
CTETRA      3018       2     275     276    2683    2689     571    5627+
+           5626    3703    5643    5644
CTETRA      3019       2    1625    1626    2637    2772    2052    4282+
+           4503    5778    5599    4508
CTETRA      3020       2    1576    1577    1587    2862    1913    1943+
+           1942    4428    5072    4429
CTETRA      3021       2     297    2684     298    2685    5294    5765+
+            636    5296    3130    5430
CTETRA      3022       2    1603    1604    1614    2851    1990    2020+
+           2019    5739    4201    4894
CTETRA      3023       2      55    1586    1575    2795    2197    1941+
+           2198    5592    5065    3672
CTETRA      3024       2    2861    2765    2690    2857    4445    4782+
+           4418    4413    4417    4324
CTETRA      3025       2     323     334     333    2707     739     738+
+            737    3259    3207    3242
CTETRA      3026       2    1604    1615    1614    2851    2022    2021+
+           2020    4201    4194    4894
CTETRA      3027       2    1552    1553    1563    2804    1847    1877+
+           1876    3753    5075    3754
CTETRA      3028       2     164     165     263    2861     176    1467+
+           1466    5673    5669    4411
CTETRA      3029       2    1524    1535    1534    2622    1796    1795+
+           1794    5299    4270    5124
CTETRA      3030       2     289     300     299    2680     643     642+
+            641    3488    4725    5717
CTETRA      3031       2     324     325     335    2642     711     741+
+            740    3004    4764    3000
CTETRA      3032       2    1554    2807    2804    2837    5248    3771+
+           5674    5249    4629    4632
CTETRA      3033       2    1501    1512    1511    2727    1731    1730+
+           1729    5470    4541    4540
CTETRA      3034       2    1501    1502    1512    2727    1702    1732+
+           1731    5470    5360    4541
CTETRA      3035       2     343     354     353    2710     795     794+
+            793    5554    4118    5552
CTETRA      3036       2     233     234    2743    2789     242    4865+
+           3695    3727    4840    3690
CTETRA      3037       2     290     301     300    2682     646     645+
+            644    3980    3481    3480
CTETRA      3038       2     330    2840    2839    2708    5653    4077+
+           5445    4767    5447    5446
CTETRA      3039       2     104     291     302    2734    1338     647+
+           1339    3378    3379    4980
CTETRA      3040       2    1496    1507    1506    2747    1718    1717+
+           1716    5472    5344    5121
CTETRA      3041       2    1490    1491    1501    2777    1664    1701+
+           1700    5060    3576    5469
CTETRA      3042       2     275     286    2676    2683     603    5385+
+           3702    5626    5628    4781
CTETRA      3043       2     287     298     297    2684     637     636+
+            635    3317    5765    5294
CTETRA      3044       2     316    2809     327    2720    4755    5649+
+            718    3723    4757    3280
CTETRA      3045       2     309     310     320    2717     670     700+
+            699    5435    3271    4770
CTETRA      3046       2     309     320     319    2839     699     698+
+            697    5433    4769    5434
CTETRA      3047       2     292     303     302    2734     650     649+
+            648    3381    3384    4980
CTETRA      3048       2    1478    1489    1488    2849    1657    1656+
+           1654    4554    5194    5642
CTETRA      3049       2    1512    1513    2620    2727    1733    4543+
+           4539    4541    5362    4542
CTETRA      3050       2     383     384     394    2652     878     908+
+            907    5533    3029    3816
CTETRA      3051       2     338     349     348    2641     780     779+
+            778    3278    5602    4655
CTETRA      3052       2     342     353     352    2709     792     791+
+            790    3217    5551    5266
CTETRA      3053       2     314     315     325    2720     683     713+
+            712    3605    4756    3606
CTETRA      3054       2     106    2758     107    2829    3475    3956+
+            111    3964    3960    3959
CTETRA      3055       2     361     362     372    2650     816     846+
+            845    5555    3063    5029
CTETRA      3056       2     273     274     284    2676     563     598+
+            597    3112    3156    3113
CTETRA      3057       2     262    2857     263    2778    4899    4317+
+            562    4966    4319    4314
CTETRA      3058       2     166     186     185    2693    2588     200+
+           2587    4124    3152    4131
CTETRA      3059       2     374     385     384    2659     882     881+
+            880    3049    3897    3892
CTETRA      3060       2     359     370     369    2660     839     838+
+            837    5042    5271    5270
CTETRA      3061       2     351     362     361    2832     817     816+
+            815    5734    5262    5043
CTETRA      3062       2     163     262     261    2857    1468     558+
+           1471    4410    4899    4322
CTETRA      3063       2     397    2822     398    2825    4708    3930+
+            918    4709    3934    3933
CTETRA      3064       2     402     403     413    2814     931     961+
+            960    3841    3840    5379
CTETRA      3065       2     405     416     415    2823     969     968+
+            967    4248    5521    4249
CTETRA      3066       2     401     402     412    2814     928     958+
+            957    5522    3841    5378
CTETRA      3067       2     382     383     393    2652     875     905+
+            904    5197    5533    5198
CTETRA      3068       2     185    2779    2781    2782    3601    3587+
+           3603    3619    3588    3590
CTETRA      3069       2     164     187     165    2693    2591    2590+
+            176    5662    3151    3150
CTETRA      3070       2     108       6     159    2702     109     170+
+           1329    3189    3191    3499
CTETRA      3071       2    1630    2633    2770    2771    3992    3537+
+           3531    3534    3540    3535
CTETRA      3072       2     391     402     401    2816     929     928+
+            927    3845    3844    5108
CTETRA      3073       2    2612    2757    2606    2609    4347    3466+
+           2900    2898    3469    2899
CTETRA      3074       2      96     379     390    2813    1354     895+
+           1355    5381    4744    4743
CTETRA      3075       2      95      96     390    2816     122    1355+
+           1356    5106    5382    5383
CTETRA      3076       2     515     516     526    2732    1250    1280+
+           1279    4679    5214    4680
CTETRA      3077       2     443     454     453    2817    1077    1076+
+           1075    3861    3849    5128
CTETRA      3078       2     495     496     506    2867    1194    1224+
+           1223    4967    4611    4593
CTETRA      3079       2     465     476     475    2649    1139    1138+
+           1137    5353    3017    4939
CTETRA      3080       2     139     540     541    2610    1397    1321+
+           1398    5230    5727    5484
CTETRA      3081       2      84     532      85    2869    1407    1408+
+            133    5579    5234    5505
CTETRA      3082       2    2603    2611    2869    2731    5226    5228+
+           5235    3460    3350    4674
CTETRA      3083       2     460     461     471    2697    1095    1125+
+           1124    5352    5206    5437
CTETRA      3084       2     141     142     538    2757     152    1392+
+           1393    4345    5420    4346
CTETRA      3085       2     136     137     543    2604     157    1402+
+           1403    4880    5309    3410
CTETRA      3086       2      83      84     522    2603     134    1379+
+           1380    5310    4775    5580
CTETRA      3087       2      86     489     500    2835    1374    1205+
+           1375    5558    5570    4837
CTETRA      3088       2     484     485     495    2868    1163    1193+
+           1192    4597    4599    4968
CTETRA      3089       2     508    2846     509    2733    5767    4158+
+           1231    5768    4156    4161
CTETRA      3090       2     499     510     509    2835    1235    1234+
+           1233    5211    4602    4601
CTETRA      3091       2      87    2835     499    2875    5213    5211+
+           1413    5711    4965    5212
CTETRA      3092       2     497     508     507    2846    1229    1228+
+           1227    4615    5767    4163
CTETRA      3093       2     518     529     528    2729    1288    1287+
+           1286    3361    5233    3358
CTETRA      3094       2     471     472    2864    2697    1126    4557+
+           5436    5437    5205    4947
CTETRA      3095       2     507     508     518    2733    1228    1258+
+           1257    4164    5768    3362
CTETRA      3096       2     504     515     514    2845    1248    1247+
+           1246    5303    4683    4682
CTETRA      3097       2     107     258     269    2762    1332     544+
+           1333    4070    4060    3969
CTETRA      3098       2     475    2864    2865    2649    5082    4560+
+           5440    4939    5443    5204
CTETRA      3099       2    2679    2810    2734    2686    4007    3810+
+           3363    3366    4099    3367
CTETRA      3100       2     479     490     489    2875    1177    1176+
+           1175    4959    5088    5604
CTETRA      3101       2     435     446     445    2701    1053    1052+
+           1051    4039    4809    4808
CTETRA      3102       2     468     479     478    2711    1146    1145+
+           1144    3225    4957    4622
CTETRA      3103       2     467     468     478    2711    1114    1144+
+           1143    3226    3225    4622
CTETRA      3104       2     517     528     527    2732    1285    1284+
+           1283    3353    3357    5610
CTETRA      3105       2     505     506     516    2845    1222    1252+
+           1251    4591    4151    5215
CTETRA      3106       2     522     523     533    2854    1269    1299+
+           1298    5562    4676    5581
CTETRA      3107       2     447     448     458    2696    1058    1088+
+           1087    4811    4847    3178
CTETRA      3108       2     480    2864     481    2868    5094    5676+
+           1151    5085    4598    5678
CTETRA      3109       2     514     515     525    2855    1247    1277+
+           1276    4684    4681    4753
CTETRA      3110       2     464     465     475    2865    1107    1137+
+           1136    5013    5117    5440
CTETRA      3111       2     137     138     542    2610     156    1400+
+           1401    4852    3399    2894
CTETRA      3112       2    2512    2756    2607    2874    5416    4350+
+           5485    5414    5417    4906
CTETRA      3113       2     436     437     447    2701    1027    1057+
+           1056    4038    4802    4810
CTETRA      3114       2      97     368     379    2645    1352     864+
+           1353    5697    5024    4752
CTETRA      3115       2     358     369     368    2660     836     835+
+            834    5052    5270    5500
CTETRA      3116       2     424     435    2833    2834    1022    5131+
+           4841    5190    4040    4024
CTETRA      3117       2     446     457     456    2695    1084    1083+
+           1082    3166    3176    5358
CTETRA      3118       2     413     424     423    2820     991     990+
+            989    4740    3873    5462
CTETRA      3119       2     143     144     536    2757     150    1388+
+           1389    4364    4365    4360
CTETRA      3120       2     516     517     527    2732    1253    1283+
+           1282    5214    3353    5610
CTETRA      3121       2     101     102     324    2644     116    1343+
+           1344    3678    5574    3003
CTETRA      3122       2      94     422      95    2826    1427    1428+
+            123    5114    3916    5107
CTETRA      3123       2     519     530     529    2729    1291    1290+
+           1289    5556    3343    5233
CTETRA      3124       2     396     407     406    2811     944     943+
+            942    3939    4333    4348
CTETRA      3125       2    1579    1590    1589    2862    1951    1950+
+           1949    4425    4421    4438
CTETRA      3126       2     343     344     354    2710     766     796+
+            795    5554    3653    4118
CTETRA      3127       2     364     375     374    2656     854     853+
+            852    3055    3056    3052
CTETRA      3128       2      98    2653     368    2645    5733    5026+
+           1351    5695    5025    5024
CTETRA      3129       2     385     395    2652    2822     911    3945+
+           3896    3894    3946    3895
CTETRA      3130       2     354     355     365    2815     797     827+
+            826    4117    4116    3835
CTETRA      3131       2     261     262     272    2778     558     557+
+            556    4323    4966    5224
CTETRA      3132       2    2279    2871    2280    2800    5645    4751+
+           2363    5685    5723    5775
CTETRA      3133       2     307     308     318    2838     664     694+
+            693    5390    5391    5527
CTETRA      3134       2     260     261     271    2761     554     553+
+            552    5540    4320    5539
CTETRA      3135       2     167     185     184    2782    2586     201+
+           2585    5526    3619    3618
CTETRA      3136       2     105     301     106    2679    1449    1450+
+            112    4019    4726    3476
CTETRA      3137       2     277     288     287    2683     609     608+
+            607    3127    3129    3319
CTETRA      3138       2     305     316     315    2736     687     686+
+            685    4983    4981    4763
CTETRA      3139       2     102     103     313    2715     115    1341+
+           1342    5444    3244    4758
CTETRA      3140       2    1626    1627    2637    2772    2055    4283+
+           4282    5599    3542    4508
CTETRA      3141       2    1500    1511    1510    2673    1728    1727+
+           1726    3340    3327    3326
CTETRA      3142       2     330     341     340    2713     758     757+
+            756    5597    5543    5605
CTETRA      3143       2     345     356     355    2710     801     800+
+            799    3654    4107    3655
CTETRA      3144       2     103     323    2716    2707    1445    3258+
+           3248    3246    3259    3250
CTETRA      3145       2    1532    1533    2626    2622    1789    5301+
+           5743    5302    5123    2937
CTETRA      3146       2    1493    2742    1494    2848    5766    4876+
+           1676    5753    4875    4874
CTETRA      3147       2     347    2859    2796    2643    4394    4404+
+           5055    4396    4395    3952
CTETRA      3148       2     332     343     342    2704     764     763+
+            762    3224    5553    3218
CTETRA      3149       2    2278    2871    2279    2800    5755    5645+
+           2360    5684    5723    5685
CTETRA      3150       2    1549    1550    1560    2776    1838    1868+
+           1867    5141    4974    3561
CTETRA      3151       2     105     280     291    2670    1336     616+
+           1337    4020    3966    3088
CTETRA      3152       2     286     287    2684    2683     605    3317+
+           5387    5628    3319    3318
CTETRA      3153       2     304     315     314    2736     684     683+
+            682    5531    4763    4985
CTETRA      3154       2    2839    2705    2708    2706    4339    3205+
+           5446    4306    3198    3204
CTETRA      3155       2     166    2801     265    2677    4122    5159+
+           1462    4778    4779    3147
CTETRA      3156       2      48       5     182    2613      80     204+
+           2183    5454    5456    3592
CTETRA      3157       2    1621    1622    1632    2634    2040    2070+
+           2069    5450    2986    4501
CTETRA      3158       2     292    2670    2810    2734    3087    5170+
+           5057    3381    3380    3810
CTETRA      3159       2    2293    2301    2300    2767    2421    2420+
+           2419    5497    5618    5699
CTETRA      3160       2    1596    1597    1607    2872    1971    2001+
+           2000    5021    5516    5008
CTETRA      3161       2    1580    1581    1591    2791    1925    1955+
+           1954    5287    3658    5063
CTETRA      3162       2    2688    2690    2676    2778    4414    3141+
+           3157    4315    4311    3573
CTETRA      3163       2    1595    2794    1596    2872    5000    5515+
+           1968    5020    5003    5021
CTETRA      3164       2    1554    2804    1555    2837    5674    4633+
+           1851    5249    4632    4631
CTETRA      3165       2    2287    2295    2294    2759    2405    2404+
+           2403    5713    5712    5496
CTETRA      3166       2    1587    2794    1588    2872    4426    4436+
+           1944    5771    5003    5742
CTETRA      3167       2    2309    2310    2753    2754    2445    3568+
+           3730    5621    5614    3444
CTETRA      3168       2    2285    2293    2292    2759    2399    2398+
+           2397    5751    5495    5498
CTETRA      3169       2    1485    1496    1495    2743    1685    1684+
+           1682    3696    5471    4870
CTETRA      3170       2    1611    1612    1622    2638    2012    2042+
+           2041    4522    4523    5449
CTETRA      3171       2    1601    1612    1611    2852    2013    2012+
+           2011    4585    4521    4520
CTETRA      3172       2    1590    1591    1601    2866    1953    1983+
+           1982    5004    5064    5016
CTETRA      3173       2      32    2269    2821    2827    2495    5682+
+           5759    3925    3927    5327
CTETRA      3174       2    2279    2287    2286    2800    2383    2382+
+           2381    5685    5736    5686
CTETRA      3175       2    1601    1602    1612    2852    1984    2014+
+           2013    4585    4587    4521
CTETRA      3176       2    2275    2282    2871    2799    2371    5720+
+           5705    5706    5721    5707
CTETRA      3177       2     189    1645    1646    2617    2168    2108+
+           2169    4215    4226    4213
CTETRA      3178       2    2268    2276    2275    2827    2354    2353+
+           2352    5317    5725    5318
CTETRA      3179       2      31       2    2256    2870      39    2452+
+           2451    5698    5693    5694
CTETRA      3180       2     248    2261    2544    2870    2500    5703+
+           2554    4645    5667    5404
CTETRA      3181       2    2803    2690    2691    2802    3746    3142+
+           3983    3747    3735    3734
CTETRA      3182       2    1503    2674    1514    2620    3582    4987+
+           1737    3583    3107    4544
CTETRA      3183       2    1491    1492    1502    2668    1668    1704+
+           1703    3577    5264    3578
CTETRA      3184       2    1500    2728    2727    2673    3339    3334+
+           5259    3340    3337    3336
CTETRA      3185       2    1591    2791    1592    2866    5063    5754+
+           1956    5064    5007    5663
CTETRA      3186       2     185    2693     186    2779    4131    3152+
+            200    3601    4132    3602
CTETRA      3187       2       5    1642     192    2613    2161    2162+
+            193    5456    2905    2904
CTETRA      3188       2       6    2780       5    2616    5156    5457+
+             81    5160    4924    5672
CTETRA      3189       2      48    1642       5    2613    2160    2161+
+             80    5454    2905    5456
CTETRA      3190       2     365     376     375    2655     857     856+
+            855    3837    3041    3040
CTETRA      3191       2    1547    1548    1558    2806    1832    1862+
+           1861    4635    5468    4636
CTETRA      3192       2    1622    1633    1632    2634    2072    2071+
+           2070    2986    2987    4501
CTETRA      3193       2    1587    1588    1598    2872    1944    1974+
+           1973    5771    5742    5636
CTETRA      3194       2    1623    2636    1634    2634    2984    4497+
+           2075    2985    2974    5427
CTETRA      3195       2     184     185    1650    2781     201    2177+
+           2178    3617    3603    5366
CTETRA      3196       2    1541    1542    1552    2784    1816    1846+
+           1845    5137    5136    3757
CTETRA      3197       2    1633    1644    1643    2635    2103    2102+
+           2101    4499    4223    4218
CTETRA      3198       2     191    1643    1644    2617    2164    2102+
+           2165    2916    4220    4225
CTETRA      3199       2    1633    1634    1644    2635    2074    2104+
+           2103    4499    4496    4223
CTETRA      3200       2    1544    1545    2786    2785    1823    3626+
+           5777    3632    3627    3629
CTETRA      3201       2    1608    1619    1618    2773    2034    2033+
+           2032    5729    5012    4205
CTETRA      3202       2     188    1646    1647    2844    2170    2111+
+           2171    5280    5284    5588
CTETRA      3203       2     182     183    1652    2664     203    2181+
+           2182    3593    5368    3594
CTETRA      3204       2     184    1650    1651    2781    2178    2123+
+           2179    3617    5366    3608
CTETRA      3205       2    1647    1648    2844    2856    2114    5762+
+           5588    5590    5278    5523
CTETRA      3206       2    1613    1614    1624    2772    2018    2048+
+           2047    4512    4893    4507
CTETRA      3207       2    1631    1632    1642    2635    2068    2098+
+           2097    2975    4500    5452
CTETRA      3208       2    1632    1643    1642    2635    2100    2099+
+           2098    4500    4218    5452
CTETRA      3209       2     187    1647    1648    2844    2172    2114+
+           2173    5281    5588    5762
CTETRA      3210       2     160     192     191    2616    2600     194+
+           2599    5162    2917    2915
CTETRA      3211       2     159     192     160    2616    2601    2600+
+            181    5161    2917    5162
CTETRA      3212       2    1624    1635    1634    2636    2078    2077+
+           2076    4504    5165    4497
CTETRA      3213       2    1605    1616    1615    2774    2025    2024+
+           2023    4203    3552    4195
CTETRA      3214       2      52    1598    2773    2872    2152    5635+
+           5763    5764    5636    4889
CTETRA      3215       2    2280    2871    2281    2800    4751    4750+
+           2366    5775    5723    5760
CTETRA      3216       2     389     400     399    2828     925     924+
+            923    4716    4718    4325
CTETRA      3217       2    1538    1539    2628    2630    1807    5146+
+           4250    4253    5147    2951
CTETRA      3218       2    1550    1551    1561    2776    1841    1871+
+           1870    4974    5089    3555
CTETRA      3219       2    1546    1557    1556    2785    1858    1857+
+           1856    5466    4642    3628
CTETRA      3220       2    2267    2268    2275    2819    2329    2352+
+           2351    5709    5316    5315
CTETRA      3221       2    1592    2791    1593    2866    5754    5061+
+           1959    5663    5007    5062
CTETRA      3222       2    2260    2268    2267    2818    2330    2329+
+           2327    5715    5323    5746
CTETRA      3223       2    2259    2260    2267    2818    2328    2327+
+           2326    5758    5715    5746
CTETRA      3224       2    1561    1572    1571    2792    1901    1900+
+           1899    3776    3661    3797
CTETRA      3225       2    2281    2871    2282    2800    4750    5720+
+           2369    5760    5723    5722
CTETRA      3226       2    1530    2626    2629    2623    4463    2949+
+           2955    2958    2939    2959
CTETRA      3227       2    2278    2799    2871    2800    5735    5707+
+           5755    5684    3714    5723
CTETRA      3228       2    1556    1557    1567    2808    1857    1887+
+           1886    4054    4058    4624
CTETRA      3229       2    2271    2279    2278    2871    2361    2360+
+           2359    5320    5645    5755
CTETRA      3230       2    1528    2629    1539    2630    5254    5145+
+           1808    5252    2952    5147
CTETRA      3231       2    1506    1517    2675    2671    1746    5745+
+           5633    5122    5728    4472
CTETRA      3232       2    1543    1544    1554    2804    1820    1850+
+           1849    5077    5078    5674
CTETRA      3233       2    1573    2792    1574    2793    3662    5776+
+           1906    3665    3664    5772
CTETRA      3234       2      57      58    1532    2784      70    2140+
+           2141    5080    5638    5744
CTETRA      3235       2      56      57    1543    2804      71    2142+
+           2143    4882    5081    5077
CTETRA      3236       2      58    2626    1532    2784    5185    5743+
+           2140    5638    4261    5744
CTETRA      3237       2      35    2291      36    2759    2463    2462+
+             44    5714    5748    3947
CTETRA      3238       2     419     430     429    2723    1009    1008+
+           1007    3308    3315    3295
CTETRA      3239       2      93     444     433    2833    1424    1049+
+           1425    5606    5132    5186
CTETRA      3240       2      96     411     400    2816    1430     956+
+           1431    5382    3911    4720
CTETRA      3241       2      31      32    2262    2821      40    2496+
+           2497    5704    5759    5747
CTETRA      3242       2     399     400     410    2816     924     954+
+            953    4327    4720    4328
CTETRA      3243       2      34    2283    2799    2800    2491    5718+
+           3711    3713    5726    3714
CTETRA      3244       2    2277    2285    2284    2800    2377    2376+
+           2375    3715    5724    3863
CTETRA      3245       2      95     422     411    2826    1428     987+
+           1429    5107    3916    3913
CTETRA      3246       2     506     507     517    2733    1225    1255+
+           1254    4154    4164    3354
CTETRA      3247       2     410    2816     411    2824    4328    3911+
+            955    4329    3904    3914
CTETRA      3248       2     465    2695     466    2649    4699    4702+
+           1110    5353    5203    3015
CTETRA      3249       2    1484    1485    2743    2797    1683    3696+
+           5732    3689    3699    3698
CTETRA      3250       2     209    1481    1480    2766    2227    1667+
+           2230    3518    3514    3524
CTETRA      3251       2    2302    2310    2309    2754    2446    2445+
+           2444    5612    5614    5621
CTETRA      3252       2    1505    1516    1515    2674    1743    1742+
+           1741    5349    4990    5184
CTETRA      3253       2    1511    1522    1521    2621    1759    1758+
+           1757    3329    2946    2929
CTETRA      3254       2     211     231     232    1482    2247     239+
+           2248    2226    3510    5056
CTETRA      3255       2    2305    2306    2753    2754    2433    3441+
+           3633    5629    3442    3444
CTETRA      3256       2    2302    2303    2754    2767    2426    5613+
+           5612    5490    3517    5494
CTETRA      3257       2     503    2867    2845    2836    5441    4594+
+           4823    4824    4833    4825
CTETRA      3258       2    2845    2847    2836    2846    4604    4831+
+           4825    4152    4159    5210
CTETRA      3259       2     413     414     424    2820     962     992+
+            991    4740    3879    3873
CTETRA      3260       2     233    2309    2310    2788    2478    2445+
+           2479    3725    3731    3726
CTETRA      3261       2     414     425     424    2639     994     993+
+            992    3882    4048    3874
CTETRA      3262       2     427     438     437    2834    1031    1030+
+           1029    4031    4032    4844
CTETRA      3263       2    2607    2606    2609    2605    2884    2899+
+           3408    2887    2886    2892
CTETRA      3264       2     529     530    2611    2729    1290    3342+
+           5231    5233    3343    3345
CTETRA      3265       2    2512    2515    2739    2756    2528    5480+
+           5421    5416    5410    4354
CTETRA      3266       2     143     536     537    2757    1389    1309+
+           1390    4364    4360    4361
CTETRA      3267       2    2826    2725    2722    2721    3922    3298+
+           5111    3923    3310    3284
CTETRA      3268       2     164    2860    2861    2857    4920    4446+
+           5673    4898    4409    4413
CTETRA      3269       2     419     420     430    2723     980    1010+
+           1009    3308    3309    3315
CTETRA      3270       2     426     427     437    2834     999    1029+
+           1028    4046    4031    4844
CTETRA      3271       2     304     305     315    2736     655     685+
+            684    5531    4983    4763
CTETRA      3272       2     443    2833     444    2694    4818    5132+
+           1048    3860    4804    5133
CTETRA      3273       2     431     432    2726    2723    1014    4819+
+           4821    4822    5187    3316
CTETRA      3274       2     271     282     281    2678     591     590+
+            589    3119    5569    3120
CTETRA      3275       2     395     396     406    2811     912     942+
+            941    3944    3939    4348
CTETRA      3276       2     404    2811     405    2823    3830    4349+
+            937    4247    4332    4248
CTETRA      3277       2     166     265     264    2677    1462     570+
+           1465    4778    3147    3116
$*
$* PROPERTY CARDS
$*
$*  Property: PSOLID2
PSOLID         2       1       0                           SMECH
$*
$* MATERIAL CARDS
$*
$*  Material: AISI_310_SS::as voor het prototype_fem3::[1]
MAT1           11.9314+8        0.3000007.9278-61.4750-5
MATT1          1       1               2               3
TABLEM1        1                       1                                +
+        20.00001.9314+8 21.11001.9314+8    ENDT
TABLEM1        2                       1                                +
+        20.00000.300000 21.11000.300000    ENDT
TABLEM1        3                       1                                +
+        20.00001.4750-5 93.33001.5120-5107.22001.5192-5121.11001.5264-5+
+       135.00001.5336-5148.89001.5390-5162.78001.5462-5176.67001.5534-5+
+       190.56001.5588-5204.44001.5660-5218.33001.5732-5232.22001.5786-5+
+       246.11001.5840-5260.00001.5912-5273.89001.5966-5287.78001.6020-5+
+       301.67001.6092-5315.56001.6146-5329.44001.6200-5343.33001.6254-5+
+       357.22001.6326-5371.11001.6380-5385.00001.6434-5398.89001.6506-5+
+       412.78001.6560-5426.67001.6614-5440.56001.6668-5454.44001.6740-5+
+       468.33001.6794-5482.22001.6848-5496.11001.6920-5510.00001.6974-5+
+       523.89001.7028-5537.78001.7100-5551.67001.7172-5565.56001.7226-5+
+       579.44001.7298-5593.33001.7370-5607.22001.7442-5621.11001.7514-5+
+       635.00001.7586-5648.89001.7640-5662.78001.7694-5676.67001.7766-5+
+       690.56001.7820-5704.44001.7874-5718.33001.7928-5732.22001.7982-5+
+       746.11001.8036-5760.00001.8090-5773.89001.8144-5787.78001.8198-5+
+       801.67001.8252-5815.56001.8324-5829.44001.8378-5843.33001.8432-5+
+       857.22001.8486-5871.11001.8540-5885.00001.8594-5898.89001.8648-5+
+       912.78001.8702-5926.67001.8756-5940.56001.8810-5954.44001.8846-5+
+       968.33001.8900-5982.22001.8954-5    ENDT
$*
$* LOAD AND CONSTRAINT CARDS
$*
$*  Constraint: NoTrans(2)
SPC            1       2     123  0.0000
SPC            1       3     123  0.0000
SPC            1      31     123  0.0000
SPC            1      32     123  0.0000
SPC            1      33     123  0.0000
SPC            1      34     123  0.0000
SPC            1      35     123  0.0000
SPC            1      36     123  0.0000
SPC            1      37     123  0.0000
SPC            1      38     123  0.0000
SPC            1      39     123  0.0000
SPC            1      40     123  0.0000
SPC            1      41     123  0.0000
SPC            1      42     123  0.0000
SPC            1      43     123  0.0000
SPC            1      44     123  0.0000
SPC            1      45     123  0.0000
SPC            1      46     123  0.0000
SPC            1      47     123  0.0000
SPC            1     228     123  0.0000
SPC            1     229     123  0.0000
SPC            1     230     123  0.0000
SPC            1     231     123  0.0000
SPC            1     232     123  0.0000
SPC            1     233     123  0.0000
SPC            1     234     123  0.0000
SPC            1     235     123  0.0000
SPC            1     236     123  0.0000
SPC            1     237     123  0.0000
SPC            1     238     123  0.0000
SPC            1     239     123  0.0000
SPC            1     240     123  0.0000
SPC            1     241     123  0.0000
SPC            1     242     123  0.0000
SPC            1     243     123  0.0000
SPC            1     244     123  0.0000
SPC            1     245     123  0.0000
SPC            1     246     123  0.0000
SPC            1     247     123  0.0000
SPC            1     248     123  0.0000
SPC            1     249     123  0.0000
SPC            1     250     123  0.0000
SPC            1     251     123  0.0000
SPC            1     252     123  0.0000
SPC            1     253     123  0.0000
SPC            1     254     123  0.0000
SPC            1     255     123  0.0000
SPC            1     256     123  0.0000
SPC            1     257     123  0.0000
SPC            1    2256     123  0.0000
SPC            1    2257     123  0.0000
SPC            1    2258     123  0.0000
SPC            1    2259     123  0.0000
SPC            1    2260     123  0.0000
SPC            1    2261     123  0.0000
SPC            1    2262     123  0.0000
SPC            1    2263     123  0.0000
SPC            1    2264     123  0.0000
SPC            1    2265     123  0.0000
SPC            1    2266     123  0.0000
SPC            1    2267     123  0.0000
SPC            1    2268     123  0.0000
SPC            1    2269     123  0.0000
SPC            1    2270     123  0.0000
SPC            1    2271     123  0.0000
SPC            1    2272     123  0.0000
SPC            1    2273     123  0.0000
SPC            1    2274     123  0.0000
SPC            1    2275     123  0.0000
SPC            1    2276     123  0.0000
SPC            1    2277     123  0.0000
SPC            1    2278     123  0.0000
SPC            1    2279     123  0.0000
SPC            1    2280     123  0.0000
SPC            1    2281     123  0.0000
SPC            1    2282     123  0.0000
SPC            1    2283     123  0.0000
SPC            1    2284     123  0.0000
SPC            1    2285     123  0.0000
SPC            1    2286     123  0.0000
SPC            1    2287     123  0.0000
SPC            1    2288     123  0.0000
SPC            1    2289     123  0.0000
SPC            1    2290     123  0.0000
SPC            1    2291     123  0.0000
SPC            1    2292     123  0.0000
SPC            1    2293     123  0.0000
SPC            1    2294     123  0.0000
SPC            1    2295     123  0.0000
SPC            1    2296     123  0.0000
SPC            1    2297     123  0.0000
SPC            1    2298     123  0.0000
SPC            1    2299     123  0.0000
SPC            1    2300     123  0.0000
SPC            1    2301     123  0.0000
SPC            1    2302     123  0.0000
SPC            1    2303     123  0.0000
SPC            1    2304     123  0.0000
SPC            1    2305     123  0.0000
SPC            1    2306     123  0.0000
SPC            1    2307     123  0.0000
SPC            1    2308     123  0.0000
SPC            1    2309     123  0.0000
SPC            1    2310     123  0.0000
SPC            1    2311     123  0.0000
SPC            1    2312     123  0.0000
SPC            1    2313     123  0.0000
SPC            1    2314     123  0.0000
SPC            1    2315     123  0.0000
SPC            1    2316     123  0.0000
SPC            1    2317     123  0.0000
SPC            1    2318     123  0.0000
SPC            1    2319     123  0.0000
SPC            1    2320     123  0.0000
SPC            1    2321     123  0.0000
SPC            1    2322     123  0.0000
SPC            1    2323     123  0.0000
SPC            1    2324     123  0.0000
SPC            1    2325     123  0.0000
SPC            1    2326     123  0.0000
SPC            1    2327     123  0.0000
SPC            1    2328     123  0.0000
SPC            1    2329     123  0.0000
SPC            1    2330     123  0.0000
SPC            1    2331     123  0.0000
SPC            1    2332     123  0.0000
SPC            1    2333     123  0.0000
SPC            1    2334     123  0.0000
SPC            1    2335     123  0.0000
SPC            1    2336     123  0.0000
SPC            1    2337     123  0.0000
SPC            1    2338     123  0.0000
SPC            1    2339     123  0.0000
SPC            1    2340     123  0.0000
SPC            1    2341     123  0.0000
SPC            1    2342     123  0.0000
SPC            1    2343     123  0.0000
SPC            1    2344     123  0.0000
SPC            1    2345     123  0.0000
SPC            1    2346     123  0.0000
SPC            1    2347     123  0.0000
SPC            1    2348     123  0.0000
SPC            1    2349     123  0.0000
SPC            1    2350     123  0.0000
SPC            1    2351     123  0.0000
SPC            1    2352     123  0.0000
SPC            1    2353     123  0.0000
SPC            1    2354     123  0.0000
SPC            1    2355     123  0.0000
SPC            1    2356     123  0.0000
SPC            1    2357     123  0.0000
SPC            1    2358     123  0.0000
SPC            1    2359     123  0.0000
SPC            1    2360     123  0.0000
SPC            1    2361     123  0.0000
SPC            1    2362     123  0.0000
SPC            1    2363     123  0.0000
SPC            1    2364     123  0.0000
SPC            1    2365     123  0.0000
SPC            1    2366     123  0.0000
SPC            1    2367     123  0.0000
SPC            1    2368     123  0.0000
SPC            1    2369     123  0.0000
SPC            1    2370     123  0.0000
SPC            1    2371     123  0.0000
SPC            1    2372     123  0.0000
SPC            1    2373     123  0.0000
SPC            1    2374     123  0.0000
SPC            1    2375     123  0.0000
SPC            1    2376     123  0.0000
SPC            1    2377     123  0.0000
SPC            1    2378     123  0.0000
SPC            1    2379     123  0.0000
SPC            1    2380     123  0.0000
SPC            1    2381     123  0.0000
SPC            1    2382     123  0.0000
SPC            1    2383     123  0.0000
SPC            1    2384     123  0.0000
SPC            1    2385     123  0.0000
SPC            1    2386     123  0.0000
SPC            1    2387     123  0.0000
SPC            1    2388     123  0.0000
SPC            1    2389     123  0.0000
SPC            1    2390     123  0.0000
SPC            1    2391     123  0.0000
SPC            1    2392     123  0.0000
SPC            1    2393     123  0.0000
SPC            1    2394     123  0.0000
SPC            1    2395     123  0.0000
SPC            1    2396     123  0.0000
SPC            1    2397     123  0.0000
SPC            1    2398     123  0.0000
SPC            1    2399     123  0.0000
SPC            1    2400     123  0.0000
SPC            1    2401     123  0.0000
SPC            1    2402     123  0.0000
SPC            1    2403     123  0.0000
SPC            1    2404     123  0.0000
SPC            1    2405     123  0.0000
SPC            1    2406     123  0.0000
SPC            1    2407     123  0.0000
SPC            1    2408     123  0.0000
SPC            1    2409     123  0.0000
SPC            1    2410     123  0.0000
SPC            1    2411     123  0.0000
SPC            1    2412     123  0.0000
SPC            1    2413     123  0.0000
SPC            1    2414     123  0.0000
SPC            1    2415     123  0.0000
SPC            1    2416     123  0.0000
SPC            1    2417     123  0.0000
SPC            1    2418     123  0.0000
SPC            1    2419     123  0.0000
SPC            1    2420     123  0.0000
SPC            1    2421     123  0.0000
SPC            1    2422     123  0.0000
SPC            1    2423     123  0.0000
SPC            1    2424     123  0.0000
SPC            1    2425     123  0.0000
SPC            1    2426     123  0.0000
SPC            1    2427     123  0.0000
SPC            1    2428     123  0.0000
SPC            1    2429     123  0.0000
SPC            1    2430     123  0.0000
SPC            1    2431     123  0.0000
SPC            1    2432     123  0.0000
SPC            1    2433     123  0.0000
SPC            1    2434     123  0.0000
SPC            1    2435     123  0.0000
SPC            1    2436     123  0.0000
SPC            1    2437     123  0.0000
SPC            1    2438     123  0.0000
SPC            1    2439     123  0.0000
SPC            1    2440     123  0.0000
SPC            1    2441     123  0.0000
SPC            1    2442     123  0.0000
SPC            1    2443     123  0.0000
SPC            1    2444     123  0.0000
SPC            1    2445     123  0.0000
SPC            1    2446     123  0.0000
SPC            1    2447     123  0.0000
SPC            1    2448     123  0.0000
SPC            1    2449     123  0.0000
SPC            1    2450     123  0.0000
SPC            1    2451     123  0.0000
SPC            1    2452     123  0.0000
SPC            1    2453     123  0.0000
SPC            1    2454     123  0.0000
SPC            1    2455     123  0.0000
SPC            1    2456     123  0.0000
SPC            1    2457     123  0.0000
SPC            1    2458     123  0.0000
SPC            1    2459     123  0.0000
SPC            1    2460     123  0.0000
SPC            1    2461     123  0.0000
SPC            1    2462     123  0.0000
SPC            1    2463     123  0.0000
SPC            1    2464     123  0.0000
SPC            1    2465     123  0.0000
SPC            1    2466     123  0.0000
SPC            1    2467     123  0.0000
SPC            1    2468     123  0.0000
SPC            1    2469     123  0.0000
SPC            1    2470     123  0.0000
SPC            1    2471     123  0.0000
SPC            1    2472     123  0.0000
SPC            1    2473     123  0.0000
SPC            1    2474     123  0.0000
SPC            1    2475     123  0.0000
SPC            1    2476     123  0.0000
SPC            1    2477     123  0.0000
SPC            1    2478     123  0.0000
SPC            1    2479     123  0.0000
SPC            1    2480     123  0.0000
SPC            1    2481     123  0.0000
SPC            1    2482     123  0.0000
SPC            1    2483     123  0.0000
SPC            1    2484     123  0.0000
SPC            1    2485     123  0.0000
SPC            1    2486     123  0.0000
SPC            1    2487     123  0.0000
SPC            1    2488     123  0.0000
SPC            1    2489     123  0.0000
SPC            1    2490     123  0.0000
SPC            1    2491     123  0.0000
SPC            1    2492     123  0.0000
SPC            1    2493     123  0.0000
SPC            1    2494     123  0.0000
SPC            1    2495     123  0.0000
SPC            1    2496     123  0.0000
SPC            1    2497     123  0.0000
SPC            1    2498     123  0.0000
SPC            1    2499     123  0.0000
SPC            1    2500     123  0.0000
SPC            1    2501     123  0.0000
SPC            1    2502     123  0.0000
SPC            1    2503     123  0.0000
SPC            1    2504     123  0.0000
SPC            1    2505     123  0.0000
SPC            1    2506     123  0.0000
SPC            1    2507     123  0.0000
SPC            1    2508     123  0.0000
SPC            1    2509     123  0.0000
SPC            1    2510     123  0.0000
$*  Load: Force(1)
FORCE          2      81       0139.2421  0.00001.000000  0.0000
FORCE          2     170       0 69.7804  0.00001.000000  0.0000
FORCE          2     171       0 69.2192  0.00001.000000  0.0000
FORCE          2     172       0 69.2508  0.00001.000000  0.0000
FORCE          2     173       0 69.6047  0.00001.000000  0.0000
FORCE          2     174       0 69.5992  0.00001.000000  0.0000
FORCE          2     175       0 69.2555  0.00001.000000  0.0000
FORCE          2     176       0 69.6031  0.00001.000000  0.0000
FORCE          2     177       0 69.5800  0.00001.000000  0.0000
FORCE          2     178       0 69.2308  0.00001.000000  0.0000
FORCE          2     179       0 69.5554  0.00001.000000  0.0000
FORCE          2     180       0 69.5639  0.00001.000000  0.0000
FORCE          2     181       0 69.2269  0.00001.000000  0.0000
FORCE          2     193       0 69.3256  0.00001.000000  0.0000
FORCE          2     194       0 69.3589  0.00001.000000  0.0000
FORCE          2     195       0 69.4452  0.00001.000000  0.0000
FORCE          2     196       0 69.6110  0.00001.000000  0.0000
FORCE          2     197       0 69.3582  0.00001.000000  0.0000
FORCE          2     198       0 69.4301  0.00001.000000  0.0000
FORCE          2     199       0 69.5647  0.00001.000000  0.0000
FORCE          2     200       0 69.3359  0.00001.000000  0.0000
FORCE          2     201       0 69.4068  0.00001.000000  0.0000
FORCE          2     202       0 69.5606  0.00001.000000  0.0000
FORCE          2     203       0 69.3381  0.00001.000000  0.0000
FORCE          2     204       0 69.4617  0.00001.000000  0.0000
FORCE          2    2580       0138.6810  0.00001.000000  0.0000
FORCE          2    2581       0138.5574  0.00001.000000  0.0000
FORCE          2    2582       0138.5889  0.00001.000000  0.0000
FORCE          2    2583       0138.8114  0.00001.000000  0.0000
FORCE          2    2584       0139.1653  0.00001.000000  0.0000
FORCE          2    2585       0139.0115  0.00001.000000  0.0000
FORCE          2    2586       0139.0060  0.00001.000000  0.0000
FORCE          2    2587       0138.9352  0.00001.000000  0.0000
FORCE          2    2588       0138.5914  0.00001.000000  0.0000
FORCE          2    2589       0138.8202  0.00001.000000  0.0000
FORCE          2    2590       0139.1678  0.00001.000000  0.0000
FORCE          2    2591       0139.0331  0.00001.000000  0.0000
FORCE          2    2592       0139.0101  0.00001.000000  0.0000
FORCE          2    2593       0138.9382  0.00001.000000  0.0000
FORCE          2    2594       0138.5890  0.00001.000000  0.0000
FORCE          2    2595       0138.8418  0.00001.000000  0.0000
FORCE          2    2596       0139.1664  0.00001.000000  0.0000
FORCE          2    2597       0139.0006  0.00001.000000  0.0000
FORCE          2    2598       0139.0090  0.00001.000000  0.0000
FORCE          2    2599       0138.9227  0.00001.000000  0.0000
FORCE          2    2600       0138.5858  0.00001.000000  0.0000
FORCE          2    2601       0138.5525  0.00001.000000  0.0000
FORCE          2    2602       0139.1059  0.00001.000000  0.0000
$*  Load: Force(2)
FORCE          3      19       0 71.6612  0.00001.000000  0.0000
FORCE          3      20       0 71.6711  0.00001.000000  0.0000
FORCE          3      21       0 71.7951  0.00001.000000  0.0000
FORCE          3      22       0 71.6642  0.00001.000000  0.0000
FORCE          3      23       0 72.0146  0.00001.000000  0.0000
FORCE          3      24       0 71.7905  0.00001.000000  0.0000
FORCE          3      25       0 71.6738  0.00001.000000  0.0000
FORCE          3      26       0 71.7999  0.00001.000000  0.0000
FORCE          3      27       0 71.6680  0.00001.000000  0.0000
FORCE          3      28       0 71.6723  0.00001.000000  0.0000
FORCE          3      29       0 71.6849  0.00001.000000  0.0000
FORCE          3      30       0 71.8051  0.00001.000000  0.0000
FORCE          3      82       0139.0665  0.00001.000000  0.0000
FORCE          3     147       0 67.0651  0.00001.000000  0.0000
FORCE          3     148       0 66.9736  0.00001.000000  0.0000
FORCE          3     149       0 67.2721  0.00001.000000  0.0000
FORCE          3     150       0 67.3334  0.00001.000000  0.0000
FORCE          3     151       0 66.9716  0.00001.000000  0.0000
FORCE          3     152       0 67.2706  0.00001.000000  0.0000
FORCE          3     153       0 67.3275  0.00001.000000  0.0000
FORCE          3     154       0 66.9626  0.00001.000000  0.0000
FORCE          3     155       0 67.2593  0.00001.000000  0.0000
FORCE          3     156       0 67.3228  0.00001.000000  0.0000
FORCE          3     157       0 66.9555  0.00001.000000  0.0000
FORCE          3     158       0 67.0519  0.00001.000000  0.0000
FORCE          3    2557       0139.0797  0.00001.000000  0.0000
FORCE          3    2558       0138.8602  0.00001.000000  0.0000
FORCE          3    2559       0138.7687  0.00001.000000  0.0000
FORCE          3    2560       0138.6378  0.00001.000000  0.0000
FORCE          3    2561       0138.9363  0.00001.000000  0.0000
FORCE          3    2562       0138.9334  0.00001.000000  0.0000
FORCE          3    2563       0138.9947  0.00001.000000  0.0000
FORCE          3    2564       0139.1239  0.00001.000000  0.0000
FORCE          3    2565       0138.7621  0.00001.000000  0.0000
FORCE          3    2566       0138.6454  0.00001.000000  0.0000
FORCE          3    2567       0138.9444  0.00001.000000  0.0000
FORCE          3    2568       0138.9386  0.00001.000000  0.0000
FORCE          3    2569       0138.9955  0.00001.000000  0.0000
FORCE          3    2570       0139.1274  0.00001.000000  0.0000
FORCE          3    2571       0138.7625  0.00001.000000  0.0000
FORCE          3    2572       0138.6475  0.00001.000000  0.0000
FORCE          3    2573       0138.9442  0.00001.000000  0.0000
FORCE          3    2574       0138.9316  0.00001.000000  0.0000
FORCE          3    2575       0138.9951  0.00001.000000  0.0000
FORCE          3    2576       0139.1279  0.00001.000000  0.0000
FORCE          3    2577       0138.7605  0.00001.000000  0.0000
FORCE          3    2578       0138.6266  0.00001.000000  0.0000
FORCE          3    2579       0138.7230  0.00001.000000  0.0000
$*  Load: Torque(1)
FORCE          4      64       0 1627.90-0.071750.997422  0.0000
FORCE          4      65       0 1654.33-0.071790.997420  0.0000
FORCE          4      66       0 1707.97-0.071820.997418  0.0000
FORCE          4      67       0 1790.26-0.071850.997415  0.0000
FORCE          4      68       0 1902.93-0.071890.997413  0.0000
FORCE          4      69       0 2047.33-0.071920.997410  0.0000
FORCE          4      70       0 2223.11-0.071970.997407  0.0000
FORCE          4      71       0 2426.17-0.072010.997404  0.0000
FORCE          4      72       0 2645.90-0.072060.997400  0.0000
FORCE          4      73       0 2862.63-0.072110.997397  0.0000
FORCE          4      74       0 3047.74-0.072170.997393  0.0000
FORCE          4      75       0 3168.87-0.072230.997388  0.0000
FORCE          4      76       0 3139.10-0.072300.997383  0.0000
FORCE          4      77       0 2796.50-0.072400.997376  0.0000
FORCE          4      78       0 2268.79-0.072490.997369  0.0000
FORCE          4      79       0 1864.21-0.072560.997364  0.0000
FORCE          4      80       0 1668.22-0.072620.997360  0.0000
FORCE          4     109       0 1613.63-0.045290.998974  0.0000
FORCE          4     110       0 1621.60-0.045310.998973  0.0000
FORCE          4     111       0 1637.61-0.045330.998972  0.0000
FORCE          4     112       0 1661.81-0.045350.998971  0.0000
FORCE          4     113       0 1694.41-0.045360.998971  0.0000
FORCE          4     114       0 1735.69-0.045380.998970  0.0000
FORCE          4     115       0 1785.95-0.045400.998969  0.0000
FORCE          4     116       0 1845.49-0.045420.998968  0.0000
FORCE          4     117       0 1914.60-0.045440.998967  0.0000
FORCE          4     118       0 1993.46-0.045460.998966  0.0000
FORCE          4     119       0 2082.09-0.045480.998965  0.0000
FORCE          4     120       0 2180.23-0.045510.998964  0.0000
FORCE          4     121       0 2287.22-0.045530.998963  0.0000
FORCE          4     122       0 2401.83-0.045560.998962  0.0000
FORCE          4     123       0 2522.10-0.045580.998961  0.0000
FORCE          4     124       0 2645.23-0.045610.998959  0.0000
FORCE          4     125       0 2767.41-0.045640.998958  0.0000
FORCE          4     126       0 2883.92-0.045670.998957  0.0000
FORCE          4     127       0 2989.26-0.045700.998955  0.0000
FORCE          4     128       0 3077.61-0.045740.998954  0.0000
FORCE          4     129       0 3143.44-0.045770.998952  0.0000
FORCE          4     130       0 3182.19-0.045800.998950  0.0000
FORCE          4     131       0 3115.42-0.045840.998949  0.0000
FORCE          4     132       0 2765.50-0.045880.998947  0.0000
FORCE          4     133       0 2244.47-0.045910.998945  0.0000
FORCE          4     134       0 1848.85-0.045940.998944  0.0000
FORCE          4     135       0 1657.44-0.045970.998943  0.0000
FORCE          4     147       0829.2010-0.302710.953082  0.0000
FORCE          4     148       0830.3994-0.737860.674952  0.0000
FORCE          4     149       0830.2644-0.976280.216532  0.0000
FORCE          4     150       0829.4558-0.95372-0.30070  0.0000
FORCE          4     151       0830.3994-0.67533-0.73752  0.0000
FORCE          4     152       0830.2644-0.21533-0.97654  0.0000
FORCE          4     153       0829.45580.303225-0.95292  0.0000
FORCE          4     154       0830.39940.739778-0.67285  0.0000
FORCE          4     155       0830.26440.977216-0.21225  0.0000
FORCE          4     156       0829.45580.9522780.305233  0.0000
FORCE          4     157       0830.39940.6724830.740113  0.0000
FORCE          4     158       0828.17540.2134590.976952  0.0000
FORCE          4     170       0807.3479-0.302050.953292  0.0000
FORCE          4     171       0806.91520.2141390.976803  0.0000
FORCE          4     172       0808.58340.6729980.739644  0.0000
FORCE          4     173       0808.07990.9524900.304571  0.0000
FORCE          4     174       0807.58780.977068-0.21293  0.0000
FORCE          4     175       0808.58340.739308-0.67337  0.0000
FORCE          4     176       0808.07990.302560-0.95313  0.0000
FORCE          4     177       0807.5878-0.21601-0.97639  0.0000
FORCE          4     178       0808.5834-0.67584-0.73705  0.0000
FORCE          4     179       0808.0799-0.95393-0.30004  0.0000
FORCE          4     180       0807.5878-0.976120.217212  0.0000
FORCE          4     181       0808.5834-0.737390.675465  0.0000
FORCE          4     193       0835.0248-0.327810.944745  0.0000
FORCE          4     194       0836.1835-0.755230.655461  0.0000
FORCE          4     195       0836.2256-0.981540.191250  0.0000
FORCE          4     196       0835.4563-0.94569-0.32508  0.0000
FORCE          4     197       0836.1835-0.65604-0.75473  0.0000
FORCE          4     198       0836.2256-0.18972-0.98184  0.0000
FORCE          4     199       0835.45630.328365-0.94455  0.0000
FORCE          4     200       0836.18350.757641-0.65267  0.0000
FORCE          4     201       0836.22560.982633-0.18556  0.0000
FORCE          4     202       0835.45630.9436020.331083  0.0000
FORCE          4     203       0836.18350.6521040.758130  0.0000
FORCE          4     204       0833.66020.1871040.982340  0.0000
FORCE          4     216       0814.4009-0.326950.945043  0.0000
FORCE          4     217       0814.53520.1880010.982169  0.0000
FORCE          4     218       0816.19780.6527970.757533  0.0000
FORCE          4     219       0815.64690.9439040.330220  0.0000
FORCE          4     220       0815.36780.982463-0.18646  0.0000
FORCE          4     221       0816.19780.757041-0.65337  0.0000
FORCE          4     222       0815.64690.327499-0.94485  0.0000
FORCE          4     223       0815.3678-0.19062-0.98166  0.0000
FORCE          4     224       0816.1978-0.65673-0.75412  0.0000
FORCE          4     225       0815.6469-0.94598-0.32422  0.0000
FORCE          4     226       0815.3678-0.981370.192148  0.0000
FORCE          4     227       0816.1978-0.754630.656150  0.0000
FORCE          4     544       0 1623.83-0.537770.843093  0.0000
FORCE          4     545       0 1625.00-0.737410.675446  0.0000
FORCE          4     546       0 1621.01-0.737400.675453  0.0000
FORCE          4     547       0 1633.03-0.737420.675439  0.0000
FORCE          4     548       0 1624.00-0.886940.461894  0.0000
FORCE          4     549       0 1623.87-0.976130.217186  0.0000
FORCE          4     550       0 1619.88-0.976130.217195  0.0000
FORCE          4     551       0 1631.88-0.976130.217177  0.0000
FORCE          4     552       0 1624.36-0.99908-0.04287  0.0000
FORCE          4     553       0 1623.57-0.95392-0.30006  0.0000
FORCE          4     554       0 1619.58-0.95392-0.30005  0.0000
FORCE          4     555       0 1631.59-0.95392-0.30007  0.0000
FORCE          4     556       0 1624.08-0.84382-0.53662  0.0000
FORCE          4     557       0 1625.00-0.67582-0.73706  0.0000
FORCE          4     558       0 1621.01-0.67583-0.73706  0.0000
FORCE          4     559       0 1633.03-0.67582-0.73707  0.0000
FORCE          4     560       0 1624.00-0.46156-0.88711  0.0000
FORCE          4     561       0 1623.87-0.21599-0.97640  0.0000
FORCE          4     562       0 1619.88-0.21599-0.97639  0.0000
FORCE          4     563       0 1631.88-0.21598-0.97640  0.0000
FORCE          4     564       0 1624.360.044873-0.99899  0.0000
FORCE          4     565       0 1623.570.302586-0.95312  0.0000
FORCE          4     566       0 1619.580.302577-0.95312  0.0000
FORCE          4     567       0 1631.590.302594-0.95312  0.0000
FORCE          4     568       0 1624.080.539239-0.84215  0.0000
FORCE          4     569       0 1625.000.739325-0.67335  0.0000
FORCE          4     570       0 1621.010.739319-0.67336  0.0000
FORCE          4     571       0 1633.030.739331-0.67334  0.0000
FORCE          4     572       0 1624.000.888657-0.45857  0.0000
FORCE          4     573       0 1623.870.977073-0.21290  0.0000
FORCE          4     574       0 1619.880.977071-0.21291  0.0000
FORCE          4     575       0 1631.880.977075-0.21289  0.0000
FORCE          4     576       0 1624.360.9988670.047596  0.0000
FORCE          4     577       0 1623.570.9524820.304596  0.0000
FORCE          4     578       0 1619.580.9524840.304587  0.0000
FORCE          4     579       0 1631.590.9524790.304604  0.0000
FORCE          4     580       0 1624.080.8414230.540376  0.0000
FORCE          4     581       0 1625.000.6729790.739662  0.0000
FORCE          4     582       0 1621.010.6729850.739656  0.0000
FORCE          4     583       0 1633.030.6729720.739668  0.0000
FORCE          4     584       0 1623.330.4589130.888481  0.0000
FORCE          4     585       0 1639.87-0.537780.843083  0.0000
FORCE          4     586       0 1641.05-0.737420.675432  0.0000
FORCE          4     587       0 1653.17-0.737430.675426  0.0000
FORCE          4     588       0 1640.04-0.886940.461878  0.0000
FORCE          4     589       0 1639.90-0.976130.217168  0.0000
FORCE          4     590       0 1652.02-0.976140.217159  0.0000
FORCE          4     591       0 1640.40-0.99908-0.04289  0.0000
FORCE          4     592       0 1639.60-0.95391-0.30008  0.0000
FORCE          4     593       0 1651.72-0.95391-0.30009  0.0000
FORCE          4     594       0 1640.11-0.84381-0.53664  0.0000
FORCE          4     595       0 1641.05-0.67581-0.73708  0.0000
FORCE          4     596       0 1653.17-0.67580-0.73708  0.0000
FORCE          4     597       0 1640.04-0.46155-0.88712  0.0000
FORCE          4     598       0 1639.90-0.21597-0.97640  0.0000
FORCE          4     599       0 1652.02-0.21596-0.97640  0.0000
FORCE          4     600       0 1640.400.044891-0.99899  0.0000
FORCE          4     601       0 1639.600.302603-0.95312  0.0000
FORCE          4     602       0 1651.720.302611-0.95311  0.0000
FORCE          4     603       0 1640.110.539254-0.84214  0.0000
FORCE          4     604       0 1641.050.739338-0.67334  0.0000
FORCE          4     605       0 1653.170.739344-0.67333  0.0000
FORCE          4     606       0 1640.040.888665-0.45856  0.0000
FORCE          4     607       0 1639.900.977077-0.21289  0.0000
FORCE          4     608       0 1652.020.977079-0.21288  0.0000
FORCE          4     609       0 1640.400.9988660.047614  0.0000
FORCE          4     610       0 1639.600.9524760.304613  0.0000
FORCE          4     611       0 1651.720.9524730.304622  0.0000
FORCE          4     612       0 1640.110.8414140.540392  0.0000
FORCE          4     613       0 1641.050.6729650.739674  0.0000
FORCE          4     614       0 1653.170.6729580.739681  0.0000
FORCE          4     615       0 1639.350.4588970.888489  0.0000
FORCE          4     616       0 1664.10-0.537800.843073  0.0000
FORCE          4     617       0 1665.30-0.737430.675418  0.0000
FORCE          4     618       0 1681.64-0.737440.675411  0.0000
FORCE          4     619       0 1664.27-0.886950.461862  0.0000
FORCE          4     620       0 1664.14-0.976140.217150  0.0000
FORCE          4     621       0 1680.46-0.976140.217141  0.0000
FORCE          4     622       0 1664.64-0.99908-0.04291  0.0000
FORCE          4     623       0 1663.83-0.95391-0.30010  0.0000
FORCE          4     624       0 1680.16-0.95391-0.30011  0.0000
FORCE          4     625       0 1664.35-0.84380-0.53665  0.0000
FORCE          4     626       0 1665.30-0.67580-0.73709  0.0000
FORCE          4     627       0 1681.64-0.67579-0.73710  0.0000
FORCE          4     628       0 1664.27-0.46153-0.88712  0.0000
FORCE          4     629       0 1664.14-0.21595-0.97640  0.0000
FORCE          4     630       0 1680.46-0.21594-0.97641  0.0000
FORCE          4     631       0 1664.640.044910-0.99899  0.0000
FORCE          4     632       0 1663.830.302620-0.95311  0.0000
FORCE          4     633       0 1680.160.302629-0.95311  0.0000
FORCE          4     634       0 1664.350.539270-0.84213  0.0000
FORCE          4     635       0 1665.300.739350-0.67332  0.0000
FORCE          4     636       0 1681.640.739357-0.67331  0.0000
FORCE          4     637       0 1664.270.888674-0.45854  0.0000
FORCE          4     638       0 1664.140.977081-0.21287  0.0000
FORCE          4     639       0 1680.460.977083-0.21286  0.0000
FORCE          4     640       0 1664.640.9988650.047633  0.0000
FORCE          4     641       0 1663.830.9524710.304630  0.0000
FORCE          4     642       0 1680.160.9524680.304639  0.0000
FORCE          4     643       0 1664.350.8414030.540408  0.0000
FORCE          4     644       0 1665.300.6729510.739687  0.0000
FORCE          4     645       0 1681.640.6729440.739694  0.0000
FORCE          4     646       0 1663.580.4588810.888498  0.0000
FORCE          4     647       0 1696.76-0.537820.843063  0.0000
FORCE          4     648       0 1697.97-0.737450.675404  0.0000
FORCE          4     649       0 1718.66-0.737450.675397  0.0000
FORCE          4     650       0 1696.93-0.886960.461845  0.0000
FORCE          4     651       0 1696.79-0.976140.217131  0.0000
FORCE          4     652       0 1717.46-0.976140.217121  0.0000
FORCE          4     653       0 1697.30-0.99908-0.04292  0.0000
FORCE          4     654       0 1696.48-0.95390-0.30011  0.0000
FORCE          4     655       0 1717.15-0.95390-0.30012  0.0000
FORCE          4     656       0 1697.01-0.84379-0.53667  0.0000
FORCE          4     657       0 1697.97-0.67578-0.73710  0.0000
FORCE          4     658       0 1718.66-0.67577-0.73711  0.0000
FORCE          4     659       0 1696.93-0.46151-0.88713  0.0000
FORCE          4     660       0 1696.79-0.21593-0.97641  0.0000
FORCE          4     661       0 1717.46-0.21592-0.97641  0.0000
FORCE          4     662       0 1697.300.044930-0.99899  0.0000
FORCE          4     663       0 1696.480.302638-0.95311  0.0000
FORCE          4     664       0 1717.150.302647-0.95310  0.0000
FORCE          4     665       0 1697.010.539287-0.84212  0.0000
FORCE          4     666       0 1697.970.739363-0.67331  0.0000
FORCE          4     667       0 1718.660.739370-0.67330  0.0000
FORCE          4     668       0 1696.930.888682-0.45852  0.0000
FORCE          4     669       0 1696.790.977085-0.21285  0.0000
FORCE          4     670       0 1717.460.977088-0.21284  0.0000
FORCE          4     671       0 1697.300.9988640.047652  0.0000
FORCE          4     672       0 1696.480.9524650.304648  0.0000
FORCE          4     673       0 1717.150.9524620.304657  0.0000
FORCE          4     674       0 1697.010.8413930.540424  0.0000
FORCE          4     675       0 1697.970.6729370.739700  0.0000
FORCE          4     676       0 1718.660.6729290.739707  0.0000
FORCE          4     677       0 1696.220.4588650.888506  0.0000
FORCE          4     678       0 1738.10-0.537830.843052  0.0000
FORCE          4     679       0 1739.34-0.737460.675389  0.0000
FORCE          4     680       0 1764.52-0.737470.675382  0.0000
FORCE          4     681       0 1738.27-0.886970.461828  0.0000
FORCE          4     682       0 1738.14-0.976150.217111  0.0000
FORCE          4     683       0 1763.29-0.976150.217101  0.0000
FORCE          4     684       0 1738.65-0.99908-0.04294  0.0000
FORCE          4     685       0 1737.81-0.95390-0.30013  0.0000
FORCE          4     686       0 1762.98-0.95389-0.30014  0.0000
FORCE          4     687       0 1738.36-0.84378-0.53669  0.0000
FORCE          4     688       0 1739.34-0.67577-0.73712  0.0000
FORCE          4     689       0 1764.52-0.67576-0.73712  0.0000
FORCE          4     690       0 1738.27-0.46150-0.88714  0.0000
FORCE          4     691       0 1738.14-0.21591-0.97641  0.0000
FORCE          4     692       0 1763.29-0.21590-0.97642  0.0000
FORCE          4     693       0 1738.650.044950-0.99899  0.0000
FORCE          4     694       0 1737.810.302656-0.95310  0.0000
FORCE          4     695       0 1762.980.302666-0.95310  0.0000
FORCE          4     696       0 1738.360.539304-0.84211  0.0000
FORCE          4     697       0 1739.340.739377-0.67329  0.0000
FORCE          4     698       0 1764.520.739384-0.67328  0.0000
FORCE          4     699       0 1738.270.888691-0.45851  0.0000
FORCE          4     700       0 1738.140.977090-0.21283  0.0000
FORCE          4     701       0 1763.290.977092-0.21282  0.0000
FORCE          4     702       0 1738.650.9988630.047672  0.0000
FORCE          4     703       0 1737.810.9524590.304666  0.0000
FORCE          4     704       0 1762.980.9524560.304676  0.0000
FORCE          4     705       0 1738.360.8413820.540441  0.0000
FORCE          4     706       0 1739.340.6729220.739714  0.0000
FORCE          4     707       0 1764.520.6729140.739721  0.0000
FORCE          4     708       0 1737.550.4588470.888515  0.0000
FORCE          4     709       0 1788.43-0.537850.843041  0.0000
FORCE          4     710       0 1789.70-0.737480.675374  0.0000
FORCE          4     711       0 1819.53-0.737480.675366  0.0000
FORCE          4     712       0 1788.60-0.886980.461811  0.0000
FORCE          4     713       0 1788.47-0.976150.217091  0.0000
FORCE          4     714       0 1818.28-0.976150.217080  0.0000
FORCE          4     715       0 1789.00-0.99908-0.04297  0.0000
FORCE          4     716       0 1788.13-0.95389-0.30015  0.0000
FORCE          4     717       0 1817.95-0.95389-0.30016  0.0000
FORCE          4     718       0 1788.69-0.84377-0.53670  0.0000
FORCE          4     719       0 1789.70-0.67575-0.73713  0.0000
FORCE          4     720       0 1819.53-0.67574-0.73714  0.0000
FORCE          4     721       0 1788.60-0.46148-0.88715  0.0000
FORCE          4     722       0 1788.47-0.21589-0.97642  0.0000
FORCE          4     723       0 1818.28-0.21588-0.97642  0.0000
FORCE          4     724       0 1789.000.044971-0.99899  0.0000
FORCE          4     725       0 1788.130.302675-0.95309  0.0000
FORCE          4     726       0 1817.950.302685-0.95309  0.0000
FORCE          4     727       0 1788.690.539321-0.84210  0.0000
FORCE          4     728       0 1789.700.739391-0.67328  0.0000
FORCE          4     729       0 1819.530.739398-0.67327  0.0000
FORCE          4     730       0 1788.600.888700-0.45849  0.0000
FORCE          4     731       0 1788.470.977094-0.21281  0.0000
FORCE          4     732       0 1818.280.977096-0.21280  0.0000
FORCE          4     733       0 1789.000.9988620.047693  0.0000
FORCE          4     734       0 1788.130.9524530.304685  0.0000
FORCE          4     735       0 1817.950.9524500.304695  0.0000
FORCE          4     736       0 1788.690.8413710.540459  0.0000
FORCE          4     737       0 1789.700.6729060.739728  0.0000
FORCE          4     738       0 1819.530.6728980.739735  0.0000
FORCE          4     739       0 1787.860.4588300.888524  0.0000
FORCE          4     740       0 1848.06-0.537870.843029  0.0000
FORCE          4     741       0 1849.36-0.737490.675358  0.0000
FORCE          4     742       0 1883.99-0.737500.675349  0.0000
FORCE          4     743       0 1848.24-0.886990.461792  0.0000
FORCE          4     744       0 1848.10-0.976160.217069  0.0000
FORCE          4     745       0 1882.70-0.976160.217058  0.0000
FORCE          4     746       0 1848.64-0.99908-0.04299  0.0000
FORCE          4     747       0 1847.75-0.95389-0.30017  0.0000
FORCE          4     748       0 1882.36-0.95388-0.30018  0.0000
FORCE          4     749       0 1848.33-0.84376-0.53672  0.0000
FORCE          4     750       0 1849.36-0.67573-0.73715  0.0000
FORCE          4     751       0 1883.99-0.67573-0.73715  0.0000
FORCE          4     752       0 1848.24-0.46146-0.88716  0.0000
FORCE          4     753       0 1848.10-0.21587-0.97642  0.0000
FORCE          4     754       0 1882.70-0.21586-0.97642  0.0000
FORCE          4     755       0 1848.640.044993-0.99899  0.0000
FORCE          4     756       0 1847.750.302695-0.95309  0.0000
FORCE          4     757       0 1882.360.302705-0.95308  0.0000
FORCE          4     758       0 1848.330.539340-0.84209  0.0000
FORCE          4     759       0 1849.360.739406-0.67326  0.0000
FORCE          4     760       0 1883.990.739414-0.67325  0.0000
FORCE          4     761       0 1848.240.888709-0.45847  0.0000
FORCE          4     762       0 1848.100.977099-0.21279  0.0000
FORCE          4     763       0 1882.700.977101-0.21278  0.0000
FORCE          4     764       0 1848.640.9988610.047715  0.0000
FORCE          4     765       0 1847.750.9524470.304705  0.0000
FORCE          4     766       0 1882.360.9524440.304715  0.0000
FORCE          4     767       0 1848.330.8413590.540477  0.0000
FORCE          4     768       0 1849.360.6728900.739743  0.0000
FORCE          4     769       0 1883.990.6728820.739750  0.0000
FORCE          4     770       0 1847.460.4588120.888534  0.0000
FORCE          4     771       0 1917.27-0.537890.843017  0.0000
FORCE          4     772       0 1918.61-0.737510.675341  0.0000
FORCE          4     773       0 1958.13-0.737510.675332  0.0000
FORCE          4     774       0 1917.45-0.887000.461774  0.0000
FORCE          4     775       0 1917.32-0.976160.217047  0.0000
FORCE          4     776       0 1956.80-0.976160.217036  0.0000
FORCE          4     777       0 1917.87-0.99907-0.04301  0.0000
FORCE          4     778       0 1916.95-0.95388-0.30019  0.0000
FORCE          4     779       0 1956.44-0.95388-0.30020  0.0000
FORCE          4     780       0 1917.55-0.84375-0.53674  0.0000
FORCE          4     781       0 1918.61-0.67572-0.73716  0.0000
FORCE          4     782       0 1958.13-0.67571-0.73717  0.0000
FORCE          4     783       0 1917.45-0.46144-0.88717  0.0000
FORCE          4     784       0 1917.32-0.21585-0.97643  0.0000
FORCE          4     785       0 1956.80-0.21583-0.97643  0.0000
FORCE          4     786       0 1917.870.045016-0.99899  0.0000
FORCE          4     787       0 1916.950.302715-0.95308  0.0000
FORCE          4     788       0 1956.440.302726-0.95308  0.0000
FORCE          4     789       0 1917.550.539359-0.84208  0.0000
FORCE          4     790       0 1918.610.739421-0.67324  0.0000
FORCE          4     791       0 1958.130.739429-0.67323  0.0000
FORCE          4     792       0 1917.450.888719-0.45845  0.0000
FORCE          4     793       0 1917.320.977104-0.21276  0.0000
FORCE          4     794       0 1956.800.977106-0.21275  0.0000
FORCE          4     795       0 1917.870.9988600.047738  0.0000
FORCE          4     796       0 1916.950.9524400.304725  0.0000
FORCE          4     797       0 1956.440.9524370.304735  0.0000
FORCE          4     798       0 1917.550.8413460.540496  0.0000
FORCE          4     799       0 1918.610.6728730.739758  0.0000
FORCE          4     800       0 1958.130.6728640.739766  0.0000
FORCE          4     801       0 1916.650.4587930.888543  0.0000
FORCE          4     802       0 1996.25-0.537910.843004  0.0000
FORCE          4     803       0 1997.64-0.737520.675323  0.0000
FORCE          4     804       0 2042.05-0.737530.675314  0.0000
FORCE          4     805       0 1996.44-0.887010.461754  0.0000
FORCE          4     806       0 1996.30-0.976170.217024  0.0000
FORCE          4     807       0 2040.67-0.976170.217012  0.0000
FORCE          4     808       0 1996.87-0.99907-0.04303  0.0000
FORCE          4     809       0 1995.91-0.95387-0.30021  0.0000
FORCE          4     810       0 2040.29-0.95387-0.30022  0.0000
FORCE          4     811       0 1996.54-0.84373-0.53676  0.0000
FORCE          4     812       0 1997.64-0.67570-0.73718  0.0000
FORCE          4     813       0 2042.05-0.67569-0.73719  0.0000
FORCE          4     814       0 1996.44-0.46142-0.88718  0.0000
FORCE          4     815       0 1996.30-0.21582-0.97643  0.0000
FORCE          4     816       0 2040.67-0.21581-0.97644  0.0000
FORCE          4     817       0 1996.870.045040-0.99899  0.0000
FORCE          4     818       0 1995.910.302736-0.95307  0.0000
FORCE          4     819       0 2040.290.302747-0.95307  0.0000
FORCE          4     820       0 1996.540.539379-0.84206  0.0000
FORCE          4     821       0 1997.640.739438-0.67323  0.0000
FORCE          4     822       0 2042.050.739446-0.67322  0.0000
FORCE          4     823       0 1996.440.888729-0.45843  0.0000
FORCE          4     824       0 1996.300.977109-0.21274  0.0000
FORCE          4     825       0 2040.670.977111-0.21273  0.0000
FORCE          4     826       0 1996.870.9988590.047762  0.0000
FORCE          4     827       0 1995.910.9524340.304746  0.0000
FORCE          4     828       0 2040.290.9524300.304757  0.0000
FORCE          4     829       0 1996.540.8413330.540516  0.0000
FORCE          4     830       0 1997.640.6728550.739774  0.0000
FORCE          4     831       0 2042.050.6728460.739782  0.0000
FORCE          4     832       0 1995.590.4587730.888553  0.0000
FORCE          4     833       0 2085.01-0.537930.842990  0.0000
FORCE          4     834       0 2086.45-0.737540.675305  0.0000
FORCE          4     835       0 2135.62-0.737550.675295  0.0000
FORCE          4     836       0 2085.20-0.887020.461734  0.0000
FORCE          4     837       0 2085.07-0.976170.216999  0.0000
FORCE          4     838       0 2134.20-0.976170.216987  0.0000
FORCE          4     839       0 2085.65-0.99907-0.04306  0.0000
FORCE          4     840       0 2084.65-0.95387-0.30023  0.0000
FORCE          4     841       0 2133.79-0.95386-0.30025  0.0000
FORCE          4     842       0 2085.31-0.84372-0.53678  0.0000
FORCE          4     843       0 2086.45-0.67568-0.73719  0.0000
FORCE          4     844       0 2135.62-0.67567-0.73720  0.0000
FORCE          4     845       0 2085.20-0.46140-0.88719  0.0000
FORCE          4     846       0 2085.07-0.21580-0.97644  0.0000
FORCE          4     847       0 2134.20-0.21578-0.97644  0.0000
FORCE          4     848       0 2085.650.045065-0.99898  0.0000
FORCE          4     849       0 2084.650.302759-0.95307  0.0000
FORCE          4     850       0 2133.790.302770-0.95306  0.0000
FORCE          4     851       0 2085.310.539401-0.84205  0.0000
FORCE          4     852       0 2086.450.739455-0.67321  0.0000
FORCE          4     853       0 2135.620.739463-0.67320  0.0000
FORCE          4     854       0 2085.200.888740-0.45841  0.0000
FORCE          4     855       0 2085.070.977114-0.21272  0.0000
FORCE          4     856       0 2134.200.977117-0.21270  0.0000
FORCE          4     857       0 2085.650.9988580.047787  0.0000
FORCE          4     858       0 2084.650.9524270.304768  0.0000
FORCE          4     859       0 2133.790.9524230.304779  0.0000
FORCE          4     860       0 2085.310.8413200.540538  0.0000
FORCE          4     861       0 2086.450.6728370.739791  0.0000
FORCE          4     862       0 2135.620.6728270.739800  0.0000
FORCE          4     863       0 2084.320.4587530.888564  0.0000
FORCE          4     864       0 2183.30-0.537950.842976  0.0000
FORCE          4     865       0 2184.78-0.737560.675285  0.0000
FORCE          4     866       0 2238.39-0.737570.675275  0.0000
FORCE          4     867       0 2183.49-0.887030.461712  0.0000
FORCE          4     868       0 2183.37-0.976180.216973  0.0000
FORCE          4     869       0 2236.92-0.976180.216960  0.0000
FORCE          4     870       0 2183.96-0.99907-0.04309  0.0000
FORCE          4     871       0 2182.91-0.95386-0.30026  0.0000
FORCE          4     872       0 2236.48-0.95385-0.30027  0.0000
FORCE          4     873       0 2183.61-0.84371-0.53681  0.0000
FORCE          4     874       0 2184.78-0.67566-0.73721  0.0000
FORCE          4     875       0 2238.39-0.67565-0.73722  0.0000
FORCE          4     876       0 2183.49-0.46138-0.88720  0.0000
FORCE          4     877       0 2183.37-0.21577-0.97644  0.0000
FORCE          4     878       0 2236.92-0.21576-0.97645  0.0000
FORCE          4     879       0 2183.960.045092-0.99898  0.0000
FORCE          4     880       0 2182.910.302782-0.95306  0.0000
FORCE          4     881       0 2236.480.302793-0.95306  0.0000
FORCE          4     882       0 2183.610.539423-0.84203  0.0000
FORCE          4     883       0 2184.780.739473-0.67319  0.0000
FORCE          4     884       0 2238.390.739482-0.67318  0.0000
FORCE          4     885       0 2183.490.888751-0.45839  0.0000
FORCE          4     886       0 2183.370.977120-0.21269  0.0000
FORCE          4     887       0 2236.920.977123-0.21268  0.0000
FORCE          4     888       0 2183.960.9988560.047814  0.0000
FORCE          4     889       0 2182.910.9524190.304791  0.0000
FORCE          4     890       0 2236.480.9524150.304803  0.0000
FORCE          4     891       0 2183.610.8413060.540560  0.0000
FORCE          4     892       0 2184.780.6728170.739809  0.0000
FORCE          4     893       0 2238.390.6728070.739818  0.0000
FORCE          4     894       0 2182.560.4587310.888575  0.0000
FORCE          4     895       0 2290.45-0.537970.842961  0.0000
FORCE          4     896       0 2291.99-0.737580.675265  0.0000
FORCE          4     897       0 2349.41-0.737590.675254  0.0000
FORCE          4     898       0 2290.64-0.887040.461690  0.0000
FORCE          4     899       0 2290.52-0.976180.216946  0.0000
FORCE          4     900       0 2347.90-0.976190.216932  0.0000
FORCE          4     901       0 2291.13-0.99907-0.04311  0.0000
FORCE          4     902       0 2290.03-0.95385-0.30028  0.0000
FORCE          4     903       0 2347.42-0.95385-0.30029  0.0000
FORCE          4     904       0 2290.77-0.84369-0.53683  0.0000
FORCE          4     905       0 2291.99-0.67564-0.73723  0.0000
FORCE          4     906       0 2349.41-0.67563-0.73724  0.0000
FORCE          4     907       0 2290.64-0.46136-0.88721  0.0000
FORCE          4     908       0 2290.52-0.21574-0.97645  0.0000
FORCE          4     909       0 2347.90-0.21573-0.97645  0.0000
FORCE          4     910       0 2291.130.045119-0.99898  0.0000
FORCE          4     911       0 2290.030.302805-0.95305  0.0000
FORCE          4     912       0 2347.420.302818-0.95305  0.0000
FORCE          4     913       0 2290.770.539446-0.84202  0.0000
FORCE          4     914       0 2291.990.739491-0.67317  0.0000
FORCE          4     915       0 2349.410.739501-0.67316  0.0000
FORCE          4     916       0 2290.640.888763-0.45837  0.0000
FORCE          4     917       0 2290.520.977126-0.21266  0.0000
FORCE          4     918       0 2347.900.977129-0.21265  0.0000
FORCE          4     919       0 2291.130.9988550.047842  0.0000
FORCE          4     920       0 2290.030.9524120.304815  0.0000
FORCE          4     921       0 2347.420.9524080.304827  0.0000
FORCE          4     922       0 2290.770.8412910.540583  0.0000
FORCE          4     923       0 2291.990.6727970.739828  0.0000
FORCE          4     924       0 2349.410.6727860.739837  0.0000
FORCE          4     925       0 2289.660.4587090.888586  0.0000
FORCE          4     926       0 2405.23-0.538000.842945  0.0000
FORCE          4     927       0 2406.82-0.737600.675243  0.0000
FORCE          4     928       0 2467.09-0.737610.675232  0.0000
FORCE          4     929       0 2405.42-0.887050.461667  0.0000
FORCE          4     930       0 2405.31-0.976190.216918  0.0000
FORCE          4     931       0 2465.53-0.976190.216903  0.0000
FORCE          4     932       0 2405.94-0.99907-0.04314  0.0000
FORCE          4     933       0 2404.79-0.95384-0.30031  0.0000
FORCE          4     934       0 2465.01-0.95384-0.30032  0.0000
FORCE          4     935       0 2405.56-0.84368-0.53685  0.0000
FORCE          4     936       0 2406.82-0.67562-0.73725  0.0000
FORCE          4     937       0 2467.09-0.67561-0.73726  0.0000
FORCE          4     938       0 2405.42-0.46134-0.88723  0.0000
FORCE          4     939       0 2405.31-0.21572-0.97646  0.0000
FORCE          4     940       0 2465.53-0.21570-0.97646  0.0000
FORCE          4     941       0 2405.940.045149-0.99898  0.0000
FORCE          4     942       0 2404.790.302830-0.95304  0.0000
FORCE          4     943       0 2465.010.302843-0.95304  0.0000
FORCE          4     944       0 2405.560.539471-0.84200  0.0000
FORCE          4     945       0 2406.820.739511-0.67314  0.0000
FORCE          4     946       0 2467.090.739521-0.67313  0.0000
FORCE          4     947       0 2405.420.888775-0.45834  0.0000
FORCE          4     948       0 2405.310.977132-0.21263  0.0000
FORCE          4     949       0 2465.530.977135-0.21262  0.0000
FORCE          4     950       0 2405.940.9988540.047871  0.0000
FORCE          4     951       0 2404.790.9524040.304840  0.0000
FORCE          4     952       0 2465.010.9524000.304852  0.0000
FORCE          4     953       0 2405.560.8412750.540608  0.0000
FORCE          4     954       0 2406.820.6727750.739847  0.0000
FORCE          4     955       0 2467.090.6727640.739857  0.0000
FORCE          4     956       0 2404.390.4586860.888598  0.0000
FORCE          4     957       0 2525.69-0.538020.842929  0.0000
FORCE          4     958       0 2527.34-0.737620.675221  0.0000
FORCE          4     959       0 2589.04-0.737630.675209  0.0000
FORCE          4     960       0 2525.89-0.887070.461643  0.0000
FORCE          4     961       0 2525.79-0.976200.216888  0.0000
FORCE          4     962       0 2587.43-0.976200.216873  0.0000
FORCE          4     963       0 2526.42-0.99907-0.04317  0.0000
FORCE          4     964       0 2525.22-0.95383-0.30033  0.0000
FORCE          4     965       0 2586.87-0.95383-0.30035  0.0000
FORCE          4     966       0 2526.04-0.84366-0.53688  0.0000
FORCE          4     967       0 2527.34-0.67560-0.73727  0.0000
FORCE          4     968       0 2589.04-0.67559-0.73728  0.0000
FORCE          4     969       0 2525.89-0.46131-0.88724  0.0000
FORCE          4     970       0 2525.79-0.21569-0.97646  0.0000
FORCE          4     971       0 2587.43-0.21567-0.97647  0.0000
FORCE          4     972       0 2526.420.045179-0.99898  0.0000
FORCE          4     973       0 2525.220.302856-0.95304  0.0000
FORCE          4     974       0 2586.870.302869-0.95303  0.0000
FORCE          4     975       0 2526.040.539497-0.84199  0.0000
FORCE          4     976       0 2527.340.739532-0.67312  0.0000
FORCE          4     977       0 2589.040.739542-0.67311  0.0000
FORCE          4     978       0 2525.890.888787-0.45832  0.0000
FORCE          4     979       0 2525.790.977138-0.21260  0.0000
FORCE          4     980       0 2587.430.977142-0.21259  0.0000
FORCE          4     981       0 2526.420.9988520.047901  0.0000
FORCE          4     982       0 2525.220.9523950.304866  0.0000
FORCE          4     983       0 2586.870.9523910.304879  0.0000
FORCE          4     984       0 2526.040.8412580.540633  0.0000
FORCE          4     985       0 2527.340.6727520.739868  0.0000
FORCE          4     986       0 2589.040.6727410.739878  0.0000
FORCE          4     987       0 2524.800.4586620.888611  0.0000
FORCE          4     988       0 2649.01-0.538050.842912  0.0000
FORCE          4     989       0 2650.71-0.737640.675197  0.0000
FORCE          4     990       0 2711.93-0.737650.675185  0.0000
FORCE          4     991       0 2649.20-0.887080.461618  0.0000
FORCE          4     992       0 2649.12-0.976200.216857  0.0000
FORCE          4     993       0 2710.29-0.976210.216841  0.0000
FORCE          4     994       0 2649.76-0.99907-0.04321  0.0000
FORCE          4     995       0 2648.50-0.95383-0.30036  0.0000
FORCE          4     996       0 2709.68-0.95382-0.30037  0.0000
FORCE          4     997       0 2649.37-0.84364-0.53691  0.0000
FORCE          4     998       0 2650.71-0.67557-0.73729  0.0000
FORCE          4     999       0 2711.93-0.67556-0.73730  0.0000
FORCE          4    1000       0 2649.20-0.46129-0.88725  0.0000
FORCE          4    1001       0 2649.12-0.21565-0.97647  0.0000
FORCE          4    1002       0 2710.29-0.21564-0.97647  0.0000
FORCE          4    1003       0 2649.760.045211-0.99898  0.0000
FORCE          4    1004       0 2648.500.302883-0.95303  0.0000
FORCE          4    1005       0 2709.680.302896-0.95302  0.0000
FORCE          4    1006       0 2649.370.539523-0.84197  0.0000
FORCE          4    1007       0 2650.710.739553-0.67310  0.0000
FORCE          4    1008       0 2711.930.739564-0.67309  0.0000
FORCE          4    1009       0 2649.200.888800-0.45830  0.0000
FORCE          4    1010       0 2649.120.977145-0.21257  0.0000
FORCE          4    1011       0 2710.290.977149-0.21256  0.0000
FORCE          4    1012       0 2649.760.9988510.047933  0.0000
FORCE          4    1013       0 2648.500.9523870.304892  0.0000
FORCE          4    1014       0 2709.680.9523830.304906  0.0000
FORCE          4    1015       0 2649.370.8412410.540660  0.0000
FORCE          4    1016       0 2650.710.6727290.739889  0.0000
FORCE          4    1017       0 2711.930.6727170.739900  0.0000
FORCE          4    1018       0 2648.060.4586370.888624  0.0000
FORCE          4    1019       0 2771.38-0.538080.842894  0.0000
FORCE          4    1020       0 2773.13-0.737660.675173  0.0000
FORCE          4    1021       0 2831.51-0.737670.675161  0.0000
FORCE          4    1022       0 2771.58-0.887090.461593  0.0000
FORCE          4    1023       0 2771.51-0.976210.216825  0.0000
FORCE          4    1024       0 2829.85-0.976210.216809  0.0000
FORCE          4    1025       0 2772.16-0.99906-0.04324  0.0000
FORCE          4    1026       0 2770.84-0.95382-0.30039  0.0000
FORCE          4    1027       0 2829.18-0.95381-0.30040  0.0000
FORCE          4    1028       0 2771.75-0.84362-0.53693  0.0000
FORCE          4    1029       0 2773.13-0.67555-0.73731  0.0000
FORCE          4    1030       0 2831.51-0.67554-0.73733  0.0000
FORCE          4    1031       0 2771.58-0.46126-0.88726  0.0000
FORCE          4    1032       0 2771.51-0.21562-0.97648  0.0000
FORCE          4    1033       0 2829.85-0.21561-0.97648  0.0000
FORCE          4    1034       0 2772.160.045244-0.99898  0.0000
FORCE          4    1035       0 2770.840.302910-0.95302  0.0000
FORCE          4    1036       0 2829.180.302924-0.95301  0.0000
FORCE          4    1037       0 2771.750.539551-0.84195  0.0000
FORCE          4    1038       0 2773.130.739575-0.67307  0.0000
FORCE          4    1039       0 2831.510.739586-0.67306  0.0000
FORCE          4    1040       0 2771.580.888813-0.45827  0.0000
FORCE          4    1041       0 2771.510.977152-0.21254  0.0000
FORCE          4    1042       0 2829.850.977156-0.21253  0.0000
FORCE          4    1043       0 2772.160.9988490.047966  0.0000
FORCE          4    1044       0 2770.840.9523780.304919  0.0000
FORCE          4    1045       0 2829.180.9523740.304933  0.0000
FORCE          4    1046       0 2771.750.8412240.540687  0.0000
FORCE          4    1047       0 2773.130.6727050.739911  0.0000
FORCE          4    1048       0 2831.510.6726930.739922  0.0000
FORCE          4    1049       0 2770.370.4586120.888637  0.0000
FORCE          4    1050       0 2888.07-0.538110.842877  0.0000
FORCE          4    1051       0 2889.86-0.737680.675149  0.0000
FORCE          4    1052       0 2942.64-0.737690.675137  0.0000
FORCE          4    1053       0 2888.26-0.887100.461568  0.0000
FORCE          4    1054       0 2888.22-0.976220.216793  0.0000
FORCE          4    1055       0 2940.97-0.976220.216777  0.0000
FORCE          4    1056       0 2888.86-0.99906-0.04327  0.0000
FORCE          4    1057       0 2887.50-0.95381-0.30041  0.0000
FORCE          4    1058       0 2940.24-0.95380-0.30043  0.0000
FORCE          4    1059       0 2888.45-0.84361-0.53696  0.0000
FORCE          4    1060       0 2889.86-0.67553-0.73734  0.0000
FORCE          4    1061       0 2942.64-0.67551-0.73735  0.0000
FORCE          4    1062       0 2888.26-0.46124-0.88728  0.0000
FORCE          4    1063       0 2888.22-0.21559-0.97648  0.0000
FORCE          4    1064       0 2940.97-0.21557-0.97649  0.0000
FORCE          4    1065       0 2888.860.045277-0.99897  0.0000
FORCE          4    1066       0 2887.500.302937-0.95301  0.0000
FORCE          4    1067       0 2940.240.302951-0.95301  0.0000
FORCE          4    1068       0 2888.450.539579-0.84194  0.0000
FORCE          4    1069       0 2889.860.739597-0.67305  0.0000
FORCE          4    1070       0 2942.640.739608-0.67304  0.0000
FORCE          4    1071       0 2888.260.888826-0.45824  0.0000
FORCE          4    1072       0 2888.220.977159-0.21251  0.0000
FORCE          4    1073       0 2940.970.977163-0.21249  0.0000
FORCE          4    1074       0 2888.860.9988470.047999  0.0000
FORCE          4    1075       0 2887.500.9523700.304946  0.0000
FORCE          4    1076       0 2940.240.9523650.304960  0.0000
FORCE          4    1077       0 2888.450.8412060.540715  0.0000
FORCE          4    1078       0 2889.860.6726800.739933  0.0000
FORCE          4    1079       0 2942.640.6726680.739944  0.0000
FORCE          4    1080       0 2887.000.4585870.888650  0.0000
FORCE          4    1081       0 2993.58-0.538130.842859  0.0000
FORCE          4    1082       0 2995.39-0.737700.675125  0.0000
FORCE          4    1083       0 3039.66-0.737710.675113  0.0000
FORCE          4    1084       0 2993.77-0.887120.461543  0.0000
FORCE          4    1085       0 2993.75-0.976220.216761  0.0000
FORCE          4    1086       0 3038.00-0.976230.216746  0.0000
FORCE          4    1087       0 2994.38-0.99906-0.04330  0.0000
FORCE          4    1088       0 2992.98-0.95380-0.30044  0.0000
FORCE          4    1089       0 3037.22-0.95380-0.30045  0.0000
FORCE          4    1090       0 2993.97-0.84359-0.53699  0.0000
FORCE          4    1091       0 2995.39-0.67550-0.73736  0.0000
FORCE          4    1092       0 3039.66-0.67549-0.73737  0.0000
FORCE          4    1093       0 2993.77-0.46121-0.88729  0.0000
FORCE          4    1094       0 2993.75-0.21556-0.97649  0.0000
FORCE          4    1095       0 3038.00-0.21554-0.97649  0.0000
FORCE          4    1096       0 2994.380.045309-0.99897  0.0000
FORCE          4    1097       0 2992.980.302964-0.95300  0.0000
FORCE          4    1098       0 3037.220.302977-0.95300  0.0000
FORCE          4    1099       0 2993.970.539607-0.84192  0.0000
FORCE          4    1100       0 2995.390.739619-0.67303  0.0000
FORCE          4    1101       0 3039.660.739630-0.67301  0.0000
FORCE          4    1102       0 2993.770.888839-0.45822  0.0000
FORCE          4    1103       0 2993.750.977166-0.21248  0.0000
FORCE          4    1104       0 3038.000.977169-0.21246  0.0000
FORCE          4    1105       0 2994.380.9988460.048031  0.0000
FORCE          4    1106       0 2992.980.9523610.304973  0.0000
FORCE          4    1107       0 3037.220.9523570.304986  0.0000
FORCE          4    1108       0 2993.970.8411880.540743  0.0000
FORCE          4    1109       0 2995.390.6726560.739955  0.0000
FORCE          4    1110       0 3039.660.6726450.739966  0.0000
FORCE          4    1111       0 2992.460.4585620.888662  0.0000
FORCE          4    1112       0 3082.06-0.538160.842842  0.0000
FORCE          4    1113       0 3083.92-0.737720.675102  0.0000
FORCE          4    1114       0 3116.90-0.737730.675091  0.0000
FORCE          4    1115       0 3082.27-0.887130.461519  0.0000
FORCE          4    1116       0 3082.27-0.976230.216731  0.0000
FORCE          4    1117       0 3115.20-0.976230.216716  0.0000
FORCE          4    1118       0 3082.89-0.99906-0.04333  0.0000
FORCE          4    1119       0 3081.45-0.95379-0.30047  0.0000
FORCE          4    1120       0 3114.42-0.95379-0.30048  0.0000
FORCE          4    1121       0 3082.48-0.84357-0.53702  0.0000
FORCE          4    1122       0 3083.92-0.67548-0.73738  0.0000
FORCE          4    1123       0 3116.90-0.67547-0.73739  0.0000
FORCE          4    1124       0 3082.27-0.46119-0.88730  0.0000
FORCE          4    1125       0 3082.27-0.21553-0.97650  0.0000
FORCE          4    1126       0 3115.20-0.21551-0.97650  0.0000
FORCE          4    1127       0 3082.890.045341-0.99897  0.0000
FORCE          4    1128       0 3081.450.302990-0.95299  0.0000
FORCE          4    1129       0 3114.420.303004-0.95299  0.0000
FORCE          4    1130       0 3082.480.539633-0.84190  0.0000
FORCE          4    1131       0 3083.920.739640-0.67300  0.0000
FORCE          4    1132       0 3116.900.739650-0.67299  0.0000
FORCE          4    1133       0 3082.270.888851-0.45820  0.0000
FORCE          4    1134       0 3082.270.977173-0.21245  0.0000
FORCE          4    1135       0 3115.200.977176-0.21243  0.0000
FORCE          4    1136       0 3082.890.9988440.048063  0.0000
FORCE          4    1137       0 3081.450.9523530.304999  0.0000
FORCE          4    1138       0 3114.420.9523480.305013  0.0000
FORCE          4    1139       0 3082.480.8411710.540769  0.0000
FORCE          4    1140       0 3083.920.6726330.739976  0.0000
FORCE          4    1141       0 3116.900.6726230.739986  0.0000
FORCE          4    1142       0 3080.920.4585380.888675  0.0000
FORCE          4    1143       0 3147.95-0.538180.842827  0.0000
FORCE          4    1144       0 3149.89-0.737740.675081  0.0000
FORCE          4    1145       0 3169.31-0.737750.675073  0.0000
FORCE          4    1146       0 3148.20-0.887140.461491  0.0000
FORCE          4    1147       0 3148.17-0.976240.216703  0.0000
FORCE          4    1148       0 3167.50-0.976240.216692  0.0000
FORCE          4    1149       0 3148.82-0.99906-0.04336  0.0000
FORCE          4    1150       0 3147.35-0.95378-0.30050  0.0000
FORCE          4    1151       0 3166.79-0.95378-0.30051  0.0000
FORCE          4    1152       0 3148.39-0.84356-0.53704  0.0000
FORCE          4    1153       0 3149.89-0.67546-0.73740  0.0000
FORCE          4    1154       0 3169.31-0.67545-0.73741  0.0000
FORCE          4    1155       0 3148.20-0.46116-0.88732  0.0000
FORCE          4    1156       0 3148.17-0.21550-0.97650  0.0000
FORCE          4    1157       0 3167.50-0.21549-0.97651  0.0000
FORCE          4    1158       0 3148.820.045369-0.99897  0.0000
FORCE          4    1159       0 3147.350.303020-0.95298  0.0000
FORCE          4    1160       0 3166.790.303036-0.95298  0.0000
FORCE          4    1161       0 3148.390.539656-0.84189  0.0000
FORCE          4    1162       0 3149.890.739659-0.67298  0.0000
FORCE          4    1163       0 3169.310.739667-0.67297  0.0000
FORCE          4    1164       0 3148.200.888866-0.45817  0.0000
FORCE          4    1165       0 3148.170.977179-0.21242  0.0000
FORCE          4    1166       0 3167.500.977181-0.21241  0.0000
FORCE          4    1167       0 3148.820.9988430.048090  0.0000
FORCE          4    1168       0 3147.350.9523430.305029  0.0000
FORCE          4    1169       0 3166.790.9523380.305045  0.0000
FORCE          4    1170       0 3148.390.8411560.540793  0.0000
FORCE          4    1171       0 3149.890.6726130.739995  0.0000
FORCE          4    1172       0 3169.310.6726040.740002  0.0000
FORCE          4    1173       0 3146.830.4585100.888689  0.0000
FORCE          4    1174       0 3186.68-0.538200.842816  0.0000
FORCE          4    1175       0 3188.79-0.737760.675066  0.0000
FORCE          4    1176       0 3155.34-0.737760.675062  0.0000
FORCE          4    1177       0 3187.02-0.887160.461461  0.0000
FORCE          4    1178       0 3186.88-0.976240.216683  0.0000
FORCE          4    1179       0 3153.32-0.976240.216677  0.0000
FORCE          4    1180       0 3187.63-0.99906-0.04338  0.0000
FORCE          4    1181       0 3186.14-0.95377-0.30053  0.0000
FORCE          4    1182       0 3152.76-0.95377-0.30055  0.0000
FORCE          4    1183       0 3187.16-0.84355-0.53706  0.0000
FORCE          4    1184       0 3188.79-0.67544-0.73741  0.0000
FORCE          4    1185       0 3155.34-0.67544-0.73742  0.0000
FORCE          4    1186       0 3187.02-0.46113-0.88733  0.0000
FORCE          4    1187       0 3186.88-0.21548-0.97651  0.0000
FORCE          4    1188       0 3153.32-0.21547-0.97651  0.0000
FORCE          4    1189       0 3187.630.045389-0.99897  0.0000
FORCE          4    1190       0 3186.140.303052-0.95297  0.0000
FORCE          4    1191       0 3152.760.303069-0.95297  0.0000
FORCE          4    1192       0 3187.160.539674-0.84187  0.0000
FORCE          4    1193       0 3188.790.739673-0.67297  0.0000
FORCE          4    1194       0 3155.340.739677-0.67296  0.0000
FORCE          4    1195       0 3187.020.888881-0.45814  0.0000
FORCE          4    1196       0 3186.880.977183-0.21240  0.0000
FORCE          4    1197       0 3153.320.977184-0.21239  0.0000
FORCE          4    1198       0 3187.630.9988420.048111  0.0000
FORCE          4    1199       0 3186.140.9523330.305061  0.0000
FORCE          4    1200       0 3152.760.9523270.305078  0.0000
FORCE          4    1201       0 3187.160.8411450.540810  0.0000
FORCE          4    1202       0 3188.790.6725970.740009  0.0000
FORCE          4    1203       0 3155.340.6725930.740013  0.0000
FORCE          4    1204       0 3185.640.4584800.888705  0.0000
FORCE          4    1205       0 3119.68-0.538210.842810  0.0000
FORCE          4    1206       0 3121.98-0.737760.675058  0.0000
FORCE          4    1207       0 2946.68-0.737770.675049  0.0000
FORCE          4    1208       0 3120.10-0.887180.461427  0.0000
FORCE          4    1209       0 3119.81-0.976240.216672  0.0000
FORCE          4    1210       0 2944.62-0.976250.216661  0.0000
FORCE          4    1211       0 3120.74-0.99906-0.04339  0.0000
FORCE          4    1212       0 3119.24-0.95376-0.30057  0.0000
FORCE          4    1213       0 2944.04-0.95375-0.30059  0.0000
FORCE          4    1214       0 3120.19-0.84354-0.53707  0.0000
FORCE          4    1215       0 3121.98-0.67543-0.73742  0.0000
FORCE          4    1216       0 2946.68-0.67543-0.73743  0.0000
FORCE          4    1217       0 3120.10-0.46110-0.88735  0.0000
FORCE          4    1218       0 3119.81-0.21547-0.97651  0.0000
FORCE          4    1219       0 2944.62-0.21546-0.97651  0.0000
FORCE          4    1220       0 3120.740.045401-0.99897  0.0000
FORCE          4    1221       0 3119.240.303089-0.95296  0.0000
FORCE          4    1222       0 2944.040.303109-0.95296  0.0000
FORCE          4    1223       0 3120.190.539684-0.84187  0.0000
FORCE          4    1224       0 3121.980.739681-0.67296  0.0000
FORCE          4    1225       0 2946.680.739688-0.67295  0.0000
FORCE          4    1226       0 3120.100.888899-0.45810  0.0000
FORCE          4    1227       0 3119.810.977186-0.21239  0.0000
FORCE          4    1228       0 2944.620.977188-0.21238  0.0000
FORCE          4    1229       0 3120.740.9988410.048122  0.0000
FORCE          4    1230       0 3119.240.9523210.305098  0.0000
FORCE          4    1231       0 2944.040.9523150.305118  0.0000
FORCE          4    1232       0 3120.190.8411390.540820  0.0000
FORCE          4    1233       0 3121.980.6725890.740016  0.0000
FORCE          4    1234       0 2946.680.6725810.740024  0.0000
FORCE          4    1235       0 3118.780.4584460.888722  0.0000
FORCE          4    1236       0 2769.29-0.538240.842795  0.0000
FORCE          4    1237       0 2771.40-0.737780.675037  0.0000
FORCE          4    1238       0 2510.32-0.737800.675022  0.0000
FORCE          4    1239       0 2769.64-0.887200.461391  0.0000
FORCE          4    1240       0 2769.34-0.976250.216644  0.0000
FORCE          4    1241       0 2508.59-0.976260.216624  0.0000
FORCE          4    1242       0 2770.26-0.99906-0.04342  0.0000
FORCE          4    1243       0 2768.90-0.95375-0.30060  0.0000
FORCE          4    1244       0 2507.96-0.95374-0.30062  0.0000
FORCE          4    1245       0 2769.74-0.84352-0.53709  0.0000
FORCE          4    1246       0 2771.40-0.67541-0.73744  0.0000
FORCE          4    1247       0 2510.32-0.67540-0.73745  0.0000
FORCE          4    1248       0 2769.64-0.46106-0.88737  0.0000
FORCE          4    1249       0 2769.34-0.21544-0.97652  0.0000
FORCE          4    1250       0 2508.59-0.21542-0.97652  0.0000
FORCE          4    1251       0 2770.260.045429-0.99897  0.0000
FORCE          4    1252       0 2768.900.303128-0.95295  0.0000
FORCE          4    1253       0 2507.960.303147-0.95294  0.0000
FORCE          4    1254       0 2769.740.539708-0.84185  0.0000
FORCE          4    1255       0 2771.400.739700-0.67294  0.0000
FORCE          4    1256       0 2510.320.739714-0.67292  0.0000
FORCE          4    1257       0 2769.640.888918-0.45807  0.0000
FORCE          4    1258       0 2769.340.977192-0.21236  0.0000
FORCE          4    1259       0 2508.590.977196-0.21234  0.0000
FORCE          4    1260       0 2770.260.9988400.048151  0.0000
FORCE          4    1261       0 2768.900.9523090.305137  0.0000
FORCE          4    1262       0 2507.960.9523020.305156  0.0000
FORCE          4    1263       0 2769.740.8411230.540843  0.0000
FORCE          4    1264       0 2771.400.6725680.740035  0.0000
FORCE          4    1265       0 2510.320.6725530.740049  0.0000
FORCE          4    1266       0 2768.490.4584090.888741  0.0000
FORCE          4    1267       0 2247.58-0.538270.842774  0.0000
FORCE          4    1268       0 2249.26-0.737810.675008  0.0000
FORCE          4    1269       0 2051.01-0.737820.674994  0.0000
FORCE          4    1270       0 2247.83-0.887210.461359  0.0000
FORCE          4    1271       0 2247.61-0.976260.216606  0.0000
FORCE          4    1272       0 2049.63-0.976260.216587  0.0000
FORCE          4    1273       0 2248.34-0.99906-0.04346  0.0000
FORCE          4    1274       0 2247.24-0.95374-0.30064  0.0000
FORCE          4    1275       0 2049.10-0.95373-0.30065  0.0000
FORCE          4    1276       0 2247.93-0.84350-0.53712  0.0000
FORCE          4    1277       0 2249.26-0.67538-0.73747  0.0000
FORCE          4    1278       0 2051.01-0.67537-0.73748  0.0000
FORCE          4    1279       0 2247.83-0.46103-0.88739  0.0000
FORCE          4    1280       0 2247.61-0.21540-0.97653  0.0000
FORCE          4    1281       0 2049.63-0.21538-0.97653  0.0000
FORCE          4    1282       0 2248.340.045468-0.99897  0.0000
FORCE          4    1283       0 2247.240.303163-0.95294  0.0000
FORCE          4    1284       0 2049.100.303178-0.95293  0.0000
FORCE          4    1285       0 2247.930.539741-0.84183  0.0000
FORCE          4    1286       0 2249.260.739726-0.67291  0.0000
FORCE          4    1287       0 2051.010.739739-0.67289  0.0000
FORCE          4    1288       0 2247.830.888934-0.45803  0.0000
FORCE          4    1289       0 2247.610.977200-0.21232  0.0000
FORCE          4    1290       0 2049.630.977204-0.21230  0.0000
FORCE          4    1291       0 2248.340.9988380.048190  0.0000
FORCE          4    1292       0 2247.240.9522980.305171  0.0000
FORCE          4    1293       0 2049.100.9522930.305186  0.0000
FORCE          4    1294       0 2247.930.8411020.540876  0.0000
FORCE          4    1295       0 2249.260.6725390.740062  0.0000
FORCE          4    1296       0 2051.010.6725250.740075  0.0000
FORCE          4    1297       0 2246.900.4583770.888758  0.0000
FORCE          4    1298       0 1851.42-0.538300.842755  0.0000
FORCE          4    1299       0 1852.78-0.737830.674982  0.0000
FORCE          4    1300       0 1756.86-0.737840.674971  0.0000
FORCE          4    1301       0 1851.62-0.887230.461333  0.0000
FORCE          4    1302       0 1851.46-0.976270.216572  0.0000
FORCE          4    1303       0 1755.67-0.976270.216557  0.0000
FORCE          4    1304       0 1852.04-0.99905-0.04350  0.0000
FORCE          4    1305       0 1851.13-0.95373-0.30067  0.0000
FORCE          4    1306       0 1755.27-0.95373-0.30068  0.0000
FORCE          4    1307       0 1851.71-0.84348-0.53715  0.0000
FORCE          4    1308       0 1852.78-0.67536-0.73749  0.0000
FORCE          4    1309       0 1756.86-0.67535-0.73750  0.0000
FORCE          4    1310       0 1851.62-0.46100-0.88740  0.0000
FORCE          4    1311       0 1851.46-0.21537-0.97653  0.0000
FORCE          4    1312       0 1755.67-0.21535-0.97654  0.0000
FORCE          4    1313       0 1852.040.045504-0.99896  0.0000
FORCE          4    1314       0 1851.130.303190-0.95293  0.0000
FORCE          4    1315       0 1755.270.303203-0.95293  0.0000
FORCE          4    1316       0 1851.710.539770-0.84181  0.0000
FORCE          4    1317       0 1852.780.739750-0.67288  0.0000
FORCE          4    1318       0 1756.860.739760-0.67287  0.0000
FORCE          4    1319       0 1851.620.888948-0.45801  0.0000
FORCE          4    1320       0 1851.460.977207-0.21229  0.0000
FORCE          4    1321       0 1755.670.977211-0.21227  0.0000
FORCE          4    1322       0 1852.040.9988360.048225  0.0000
FORCE          4    1323       0 1851.130.9522890.305199  0.0000
FORCE          4    1324       0 1755.270.9522850.305211  0.0000
FORCE          4    1325       0 1851.710.8410830.540906  0.0000
FORCE          4    1326       0 1852.780.6725130.740085  0.0000
FORCE          4    1327       0 1756.860.6725020.740096  0.0000
FORCE          4    1328       0 1850.850.4583520.888771  0.0000
FORCE          4    1329       0 1614.62-0.302060.953289  0.0000
FORCE          4    1330       0 1618.60-0.302070.953286  0.0000
FORCE          4    1331       0 1615.85-0.537750.843103  0.0000
FORCE          4    1332       0 1622.59-0.302080.953284  0.0000
FORCE          4    1333       0 1630.60-0.302080.953281  0.0000
FORCE          4    1334       0 1638.61-0.302090.953278  0.0000
FORCE          4    1335       0 1650.72-0.302100.953276  0.0000
FORCE          4    1336       0 1662.83-0.302110.953273  0.0000
FORCE          4    1337       0 1679.15-0.302120.953270  0.0000
FORCE          4    1338       0 1695.46-0.302130.953267  0.0000
FORCE          4    1339       0 1716.12-0.302140.953264  0.0000
FORCE          4    1340       0 1736.77-0.302150.953261  0.0000
FORCE          4    1341       0 1761.92-0.302160.953258  0.0000
FORCE          4    1342       0 1787.07-0.302170.953255  0.0000
FORCE          4    1343       0 1816.86-0.302180.953252  0.0000
FORCE          4    1344       0 1846.66-0.302190.953249  0.0000
FORCE          4    1345       0 1881.24-0.302200.953246  0.0000
FORCE          4    1346       0 1915.82-0.302210.953243  0.0000
FORCE          4    1347       0 1955.29-0.302220.953240  0.0000
FORCE          4    1348       0 1994.75-0.302230.953236  0.0000
FORCE          4    1349       0 2039.10-0.302240.953233  0.0000
FORCE          4    1350       0 2083.45-0.302250.953229  0.0000
FORCE          4    1351       0 2132.56-0.302260.953226  0.0000
FORCE          4    1352       0 2181.67-0.302270.953222  0.0000
FORCE          4    1353       0 2235.21-0.302280.953218  0.0000
FORCE          4    1354       0 2288.75-0.302300.953214  0.0000
FORCE          4    1355       0 2346.10-0.302310.953210  0.0000
FORCE          4    1356       0 2403.45-0.302320.953206  0.0000
FORCE          4    1357       0 2463.64-0.302330.953202  0.0000
FORCE          4    1358       0 2523.83-0.302350.953198  0.0000
FORCE          4    1359       0 2585.45-0.302360.953194  0.0000
FORCE          4    1360       0 2647.07-0.302370.953190  0.0000
FORCE          4    1361       0 2708.21-0.302390.953186  0.0000
FORCE          4    1362       0 2769.36-0.302400.953181  0.0000
FORCE          4    1363       0 2827.65-0.302410.953177  0.0000
FORCE          4    1364       0 2885.96-0.302430.953173  0.0000
FORCE          4    1365       0 2938.67-0.302440.953168  0.0000
FORCE          4    1366       0 2991.39-0.302450.953164  0.0000
FORCE          4    1367       0 3035.58-0.302470.953160  0.0000
FORCE          4    1368       0 3079.80-0.302480.953156  0.0000
FORCE          4    1369       0 3112.72-0.302490.953151  0.0000
FORCE          4    1370       0 3145.63-0.302510.953147  0.0000
FORCE          4    1371       0 3164.99-0.302520.953142  0.0000
FORCE          4    1372       0 3184.31-0.302540.953136  0.0000
FORCE          4    1373       0 3150.85-0.302560.953131  0.0000
FORCE          4    1374       0 3117.30-0.302580.953125  0.0000
FORCE          4    1375       0 2942.20-0.302600.953118  0.0000
FORCE          4    1376       0 2767.11-0.302620.953112  0.0000
FORCE          4    1377       0 2506.44-0.302640.953106  0.0000
FORCE          4    1378       0 2245.81-0.302650.953101  0.0000
FORCE          4    1379       0 2047.88-0.302670.953097  0.0000
FORCE          4    1380       0 1849.98-0.302680.953093  0.0000
FORCE          4    1381       0 1754.22-0.302690.953089  0.0000
FORCE          4    1382       0 1658.47-0.302700.953085  0.0000
FORCE          4    1383       0 1659.76-0.538320.842740  0.0000
FORCE          4    1384       0 1660.95-0.737850.674961  0.0000
FORCE          4    1385       0 1659.93-0.887240.461311  0.0000
FORCE          4    1386       0 1659.80-0.976270.216544  0.0000
FORCE          4    1387       0 1660.30-0.99905-0.04353  0.0000
FORCE          4    1388       0 1659.49-0.95372-0.30069  0.0000
FORCE          4    1389       0 1660.01-0.84347-0.53718  0.0000
FORCE          4    1390       0 1660.95-0.67534-0.73751  0.0000
FORCE          4    1391       0 1659.93-0.46098-0.88741  0.0000
FORCE          4    1392       0 1659.80-0.21534-0.97654  0.0000
FORCE          4    1393       0 1660.300.045532-0.99896  0.0000
FORCE          4    1394       0 1659.490.303214-0.95292  0.0000
FORCE          4    1395       0 1660.010.539794-0.84180  0.0000
FORCE          4    1396       0 1660.950.739769-0.67286  0.0000
FORCE          4    1397       0 1659.930.888959-0.45799  0.0000
FORCE          4    1398       0 1659.800.977213-0.21226  0.0000
FORCE          4    1399       0 1660.300.9988350.048253  0.0000
FORCE          4    1400       0 1659.490.9522810.305222  0.0000
FORCE          4    1401       0 1660.010.8410680.540930  0.0000
FORCE          4    1402       0 1660.950.6724920.740104  0.0000
FORCE          4    1403       0 1659.240.4583300.888782  0.0000
FORCE          4    1404       0 1657.010.2134710.976949  0.0000
FORCE          4    1405       0 1752.660.2134840.976947  0.0000
FORCE          4    1406       0 1848.370.2134990.976943  0.0000
FORCE          4    1407       0 2046.060.2135150.976940  0.0000
FORCE          4    1408       0 2243.890.2135330.976936  0.0000
FORCE          4    1409       0 2504.240.2135510.976932  0.0000
FORCE          4    1410       0 2764.780.2135720.976927  0.0000
FORCE          4    1411       0 2939.590.2135880.976924  0.0000
FORCE          4    1412       0 3114.610.2135990.976921  0.0000
FORCE          4    1413       0 3147.920.2136040.976920  0.0000
FORCE          4    1414       0 3181.420.2136100.976919  0.0000
FORCE          4    1415       0 3162.030.2136190.976917  0.0000
FORCE          4    1416       0 3142.700.2136310.976915  0.0000
FORCE          4    1417       0 3109.790.2136440.976912  0.0000
FORCE          4    1418       0 3076.880.2136580.976909  0.0000
FORCE          4    1419       0 3032.720.2136730.976905  0.0000
FORCE          4    1420       0 2988.510.2136880.976902  0.0000
FORCE          4    1421       0 2935.870.2137040.976898  0.0000
FORCE          4    1422       0 2883.170.2137200.976895  0.0000
FORCE          4    1423       0 2824.960.2137370.976891  0.0000
FORCE          4    1424       0 2766.680.2137520.976888  0.0000
FORCE          4    1425       0 2705.640.2137690.976884  0.0000
FORCE          4    1426       0 2644.520.2137840.976881  0.0000
FORCE          4    1427       0 2583.010.2138000.976877  0.0000
FORCE          4    1428       0 2521.420.2138150.976874  0.0000
FORCE          4    1429       0 2461.330.2138300.976871  0.0000
FORCE          4    1430       0 2401.170.2138450.976868  0.0000
FORCE          4    1431       0 2343.920.2138590.976864  0.0000
FORCE          4    1432       0 2286.590.2138730.976861  0.0000
FORCE          4    1433       0 2233.150.2138870.976858  0.0000
FORCE          4    1434       0 2179.640.2139000.976855  0.0000
FORCE          4    1435       0 2130.610.2139140.976853  0.0000
FORCE          4    1436       0 2081.530.2139260.976850  0.0000
FORCE          4    1437       0 2037.250.2139390.976847  0.0000
FORCE          4    1438       0 1992.920.2139510.976844  0.0000
FORCE          4    1439       0 1953.520.2139630.976842  0.0000
FORCE          4    1440       0 1914.080.2139740.976839  0.0000
FORCE          4    1441       0 1879.560.2139860.976837  0.0000
FORCE          4    1442       0 1844.990.2139960.976834  0.0000
FORCE          4    1443       0 1815.250.2140070.976832  0.0000
FORCE          4    1444       0 1785.470.2140180.976830  0.0000
FORCE          4    1445       0 1760.360.2140280.976827  0.0000
FORCE          4    1446       0 1735.230.2140380.976825  0.0000
FORCE          4    1447       0 1714.600.2140480.976823  0.0000
FORCE          4    1448       0 1693.960.2140580.976821  0.0000
FORCE          4    1449       0 1677.670.2140680.976819  0.0000
FORCE          4    1450       0 1661.360.2140770.976817  0.0000
FORCE          4    1451       0 1649.270.2140860.976815  0.0000
FORCE          4    1452       0 1637.170.2140950.976813  0.0000
FORCE          4    1453       0 1629.170.2141040.976811  0.0000
FORCE          4    1454       0 1621.160.2141130.976809  0.0000
FORCE          4    1455       0 1617.180.2141220.976807  0.0000
FORCE          4    1456       0 1615.350.4589290.888473  0.0000
FORCE          4    1457       0 1613.200.2141310.976805  0.0000
FORCE          4    1458       0 1616.100.8414330.540361  0.0000
FORCE          4    1459       0 1617.020.6729920.739650  0.0000
FORCE          4    1460       0 1616.380.9988680.047578  0.0000
FORCE          4    1461       0 1615.590.9524870.304579  0.0000
FORCE          4    1462       0 1616.020.888649-0.45859  0.0000
FORCE          4    1463       0 1615.890.977069-0.21292  0.0000
FORCE          4    1464       0 1616.100.539224-0.84216  0.0000
FORCE          4    1465       0 1617.020.739313-0.67336  0.0000
FORCE          4    1466       0 1616.380.044855-0.99899  0.0000
FORCE          4    1467       0 1615.590.302569-0.95313  0.0000
FORCE          4    1468       0 1616.02-0.46158-0.88710  0.0000
FORCE          4    1469       0 1615.89-0.21600-0.97639  0.0000
FORCE          4    1470       0 1616.10-0.84383-0.53661  0.0000
FORCE          4    1471       0 1617.02-0.67584-0.73705  0.0000
FORCE          4    1472       0 1616.38-0.99908-0.04285  0.0000
FORCE          4    1473       0 1615.59-0.95393-0.30005  0.0000
FORCE          4    1474       0 1616.02-0.886930.461910  0.0000
FORCE          4    1475       0 1615.89-0.976130.217204  0.0000
FORCE          4    1476       0 1617.02-0.737400.675459  0.0000
FORCE          4    1653       0 1657.52-0.559590.828771  0.0000
FORCE          4    1654       0 1658.66-0.754660.656114  0.0000
FORCE          4    1655       0 1645.41-0.754650.656127  0.0000
FORCE          4    1656       0 1685.55-0.754670.656101  0.0000
FORCE          4    1657       0 1657.81-0.898510.438955  0.0000
FORCE          4    1658       0 1657.86-0.981380.192100  0.0000
FORCE          4    1659       0 1644.61-0.981370.192117  0.0000
FORCE          4    1660       0 1684.73-0.981380.192083  0.0000
FORCE          4    1661       0 1658.14-0.99766-0.06838  0.0000
FORCE          4    1662       0 1657.38-0.94597-0.32426  0.0000
FORCE          4    1663       0 1644.14-0.94597-0.32425  0.0000
FORCE          4    1664       0 1684.25-0.94596-0.32428  0.0000
FORCE          4    1665       0 1657.94-0.82983-0.55802  0.0000
FORCE          4    1666       0 1658.66-0.65670-0.75416  0.0000
FORCE          4    1667       0 1645.41-0.65671-0.75414  0.0000
FORCE          4    1668       0 1685.55-0.65668-0.75417  0.0000
FORCE          4    1669       0 1657.81-0.43859-0.89869  0.0000
FORCE          4    1670       0 1657.86-0.19058-0.98167  0.0000
FORCE          4    1671       0 1644.61-0.19059-0.98167  0.0000
FORCE          4    1672       0 1684.73-0.19056-0.98168  0.0000
FORCE          4    1673       0 1658.140.070976-0.99748  0.0000
FORCE          4    1674       0 1657.380.327545-0.94484  0.0000
FORCE          4    1675       0 1644.140.327529-0.94484  0.0000
FORCE          4    1676       0 1684.250.327560-0.94483  0.0000
FORCE          4    1677       0 1657.940.561416-0.82753  0.0000
FORCE          4    1678       0 1658.660.757073-0.65333  0.0000
FORCE          4    1679       0 1645.410.757062-0.65334  0.0000
FORCE          4    1680       0 1685.550.757085-0.65332  0.0000
FORCE          4    1681       0 1657.810.900651-0.43454  0.0000
FORCE          4    1682       0 1657.860.982472-0.18641  0.0000
FORCE          4    1683       0 1644.610.982468-0.18643  0.0000
FORCE          4    1684       0 1684.730.982475-0.18640  0.0000
FORCE          4    1685       0 1658.140.9972100.074653  0.0000
FORCE          4    1686       0 1657.380.9438880.330265  0.0000
FORCE          4    1687       0 1644.140.9438930.330250  0.0000
FORCE          4    1688       0 1684.250.9438830.330281  0.0000
FORCE          4    1689       0 1657.940.8264760.562972  0.0000
FORCE          4    1690       0 1658.660.6527600.757565  0.0000
FORCE          4    1691       0 1645.410.6527730.757554  0.0000
FORCE          4    1692       0 1685.550.6527460.757576  0.0000
FORCE          4    1693       0 1656.970.4349250.900467  0.0000
FORCE          4    1694       0 1711.27-0.559620.828751  0.0000
FORCE          4    1695       0 1712.43-0.754690.656087  0.0000
FORCE          4    1696       0 1753.69-0.754700.656072  0.0000
FORCE          4    1697       0 1711.57-0.898520.438925  0.0000
FORCE          4    1698       0 1711.62-0.981380.192065  0.0000
FORCE          4    1699       0 1752.85-0.981390.192047  0.0000
FORCE          4    1700       0 1711.90-0.99766-0.06842  0.0000
FORCE          4    1701       0 1711.12-0.94596-0.32430  0.0000
FORCE          4    1702       0 1752.34-0.94595-0.32431  0.0000
FORCE          4    1703       0 1711.70-0.82981-0.55805  0.0000
FORCE          4    1704       0 1712.43-0.65667-0.75418  0.0000
FORCE          4    1705       0 1753.69-0.65665-0.75419  0.0000
FORCE          4    1706       0 1711.57-0.43856-0.89870  0.0000
FORCE          4    1707       0 1711.62-0.19054-0.98168  0.0000
FORCE          4    1708       0 1752.85-0.19052-0.98168  0.0000
FORCE          4    1709       0 1711.900.071012-0.99748  0.0000
FORCE          4    1710       0 1711.120.327576-0.94482  0.0000
FORCE          4    1711       0 1752.340.327593-0.94482  0.0000
FORCE          4    1712       0 1711.700.561446-0.82751  0.0000
FORCE          4    1713       0 1712.430.757097-0.65330  0.0000
FORCE          4    1714       0 1753.690.757109-0.65329  0.0000
FORCE          4    1715       0 1711.570.900666-0.43451  0.0000
FORCE          4    1716       0 1711.620.982478-0.18638  0.0000
FORCE          4    1717       0 1752.850.982482-0.18636  0.0000
FORCE          4    1718       0 1711.900.9972070.074689  0.0000
FORCE          4    1719       0 1711.120.9438770.330297  0.0000
FORCE          4    1720       0 1752.340.9438710.330313  0.0000
FORCE          4    1721       0 1711.700.8264560.563002  0.0000
FORCE          4    1722       0 1712.430.6527320.757588  0.0000
FORCE          4    1723       0 1753.690.6527180.757601  0.0000
FORCE          4    1724       0 1710.690.4348940.900481  0.0000
FORCE          4    1725       0 1793.73-0.559650.828729  0.0000
FORCE          4    1726       0 1794.93-0.754710.656057  0.0000
FORCE          4    1727       0 1851.42-0.754720.656042  0.0000
FORCE          4    1728       0 1794.03-0.898540.438894  0.0000
FORCE          4    1729       0 1794.10-0.981390.192027  0.0000
FORCE          4    1730       0 1850.56-0.981390.192007  0.0000
FORCE          4    1731       0 1794.38-0.99765-0.06846  0.0000
FORCE          4    1732       0 1793.56-0.94594-0.32433  0.0000
FORCE          4    1733       0 1850.01-0.94594-0.32435  0.0000
FORCE          4    1734       0 1794.18-0.82979-0.55808  0.0000
FORCE          4    1735       0 1794.93-0.65664-0.75420  0.0000
FORCE          4    1736       0 1851.42-0.65662-0.75422  0.0000
FORCE          4    1737       0 1794.03-0.43853-0.89872  0.0000
FORCE          4    1738       0 1794.10-0.19050-0.98169  0.0000
FORCE          4    1739       0 1850.56-0.19048-0.98169  0.0000
FORCE          4    1740       0 1794.380.071052-0.99747  0.0000
FORCE          4    1741       0 1793.560.327610-0.94481  0.0000
FORCE          4    1742       0 1850.010.327627-0.94481  0.0000
FORCE          4    1743       0 1794.180.561478-0.82749  0.0000
FORCE          4    1744       0 1794.930.757122-0.65327  0.0000
FORCE          4    1745       0 1851.420.757136-0.65326  0.0000
FORCE          4    1746       0 1794.030.900681-0.43448  0.0000
FORCE          4    1747       0 1794.100.982486-0.18634  0.0000
FORCE          4    1748       0 1850.560.982489-0.18632  0.0000
FORCE          4    1749       0 1794.380.9972040.074728  0.0000
FORCE          4    1750       0 1793.560.9438650.330330  0.0000
FORCE          4    1751       0 1850.010.9438590.330347  0.0000
FORCE          4    1752       0 1794.180.8264340.563034  0.0000
FORCE          4    1753       0 1794.930.6527030.757614  0.0000
FORCE          4    1754       0 1851.420.6526870.757627  0.0000
FORCE          4    1755       0 1793.110.4348630.900497  0.0000
FORCE          4    1756       0 1906.64-0.559680.828706  0.0000
FORCE          4    1757       0 1907.88-0.754740.656025  0.0000
FORCE          4    1758       0 1980.28-0.754750.656008  0.0000
FORCE          4    1759       0 1906.95-0.898560.438860  0.0000
FORCE          4    1760       0 1907.04-0.981400.191985  0.0000
FORCE          4    1761       0 1979.40-0.981400.191963  0.0000
FORCE          4    1762       0 1907.32-0.99765-0.06850  0.0000
FORCE          4    1763       0 1906.45-0.94593-0.32436  0.0000
FORCE          4    1764       0 1978.79-0.94593-0.32438  0.0000
FORCE          4    1765       0 1907.11-0.82976-0.55811  0.0000
FORCE          4    1766       0 1907.88-0.65661-0.75423  0.0000
FORCE          4    1767       0 1980.28-0.65659-0.75425  0.0000
FORCE          4    1768       0 1906.95-0.43850-0.89873  0.0000
FORCE          4    1769       0 1907.04-0.19046-0.98169  0.0000
FORCE          4    1770       0 1979.40-0.19044-0.98170  0.0000
FORCE          4    1771       0 1907.320.071094-0.99747  0.0000
FORCE          4    1772       0 1906.450.327645-0.94480  0.0000
FORCE          4    1773       0 1978.790.327663-0.94479  0.0000
FORCE          4    1774       0 1907.110.561514-0.82747  0.0000
FORCE          4    1775       0 1907.880.757150-0.65324  0.0000
FORCE          4    1776       0 1980.280.757165-0.65322  0.0000
FORCE          4    1777       0 1906.950.900697-0.43445  0.0000
FORCE          4    1778       0 1907.040.982494-0.18630  0.0000
FORCE          4    1779       0 1979.400.982498-0.18627  0.0000
FORCE          4    1780       0 1907.320.9972010.074770  0.0000
FORCE          4    1781       0 1906.450.9438530.330365  0.0000
FORCE          4    1782       0 1978.790.9438470.330384  0.0000
FORCE          4    1783       0 1907.110.8264100.563069  0.0000
FORCE          4    1784       0 1907.880.6526710.757642  0.0000
FORCE          4    1785       0 1980.280.6526540.757656  0.0000
FORCE          4    1786       0 1905.960.4348290.900513  0.0000
FORCE          4    1787       0 2051.34-0.559720.828680  0.0000
FORCE          4    1788       0 2052.63-0.754770.655990  0.0000
FORCE          4    1789       0 2140.76-0.754790.655972  0.0000
FORCE          4    1790       0 2051.66-0.898570.438825  0.0000
FORCE          4    1791       0 2051.79-0.981410.191940  0.0000
FORCE          4    1792       0 2139.87-0.981410.191916  0.0000
FORCE          4    1793       0 2052.05-0.99765-0.06855  0.0000
FORCE          4    1794       0 2051.12-0.94592-0.32440  0.0000
FORCE          4    1795       0 2139.18-0.94591-0.32442  0.0000
FORCE          4    1796       0 2051.84-0.82974-0.55815  0.0000
FORCE          4    1797       0 2052.63-0.65657-0.75426  0.0000
FORCE          4    1798       0 2140.76-0.65655-0.75428  0.0000
FORCE          4    1799       0 2051.66-0.43846-0.89875  0.0000
FORCE          4    1800       0 2051.79-0.19041-0.98170  0.0000
FORCE          4    1801       0 2139.87-0.19039-0.98171  0.0000
FORCE          4    1802       0 2052.050.071141-0.99747  0.0000
FORCE          4    1803       0 2051.120.327682-0.94479  0.0000
FORCE          4    1804       0 2139.180.327702-0.94478  0.0000
FORCE          4    1805       0 2051.840.561552-0.82744  0.0000
FORCE          4    1806       0 2052.630.757181-0.65321  0.0000
FORCE          4    1807       0 2140.760.757197-0.65319  0.0000
FORCE          4    1808       0 2051.660.900715-0.43441  0.0000
FORCE          4    1809       0 2051.790.982502-0.18625  0.0000
FORCE          4    1810       0 2139.870.982507-0.18623  0.0000
FORCE          4    1811       0 2052.050.9971970.074817  0.0000
FORCE          4    1812       0 2051.120.9438400.330403  0.0000
FORCE          4    1813       0 2139.180.9438330.330422  0.0000
FORCE          4    1814       0 2051.840.8263840.563108  0.0000
FORCE          4    1815       0 2052.630.6526360.757672  0.0000
FORCE          4    1816       0 2140.760.6526170.757688  0.0000
FORCE          4    1817       0 2050.590.4347940.900530  0.0000
FORCE          4    1818       0 2227.50-0.559770.828651  0.0000
FORCE          4    1819       0 2228.84-0.754800.655952  0.0000
FORCE          4    1820       0 2330.65-0.754820.655932  0.0000
FORCE          4    1821       0 2227.82-0.898590.438788  0.0000
FORCE          4    1822       0 2228.01-0.981420.191890  0.0000
FORCE          4    1823       0 2329.77-0.981420.191864  0.0000
FORCE          4    1824       0 2228.24-0.99764-0.06860  0.0000
FORCE          4    1825       0 2227.24-0.94591-0.32444  0.0000
FORCE          4    1826       0 2328.96-0.94590-0.32446  0.0000
FORCE          4    1827       0 2228.03-0.82971-0.55819  0.0000
FORCE          4    1828       0 2228.84-0.65653-0.75430  0.0000
FORCE          4    1829       0 2330.65-0.65651-0.75431  0.0000
FORCE          4    1830       0 2227.82-0.43842-0.89877  0.0000
FORCE          4    1831       0 2228.01-0.19036-0.98171  0.0000
FORCE          4    1832       0 2329.77-0.19034-0.98172  0.0000
FORCE          4    1833       0 2228.240.071192-0.99746  0.0000
FORCE          4    1834       0 2227.240.327722-0.94477  0.0000
FORCE          4    1835       0 2328.960.327742-0.94477  0.0000
FORCE          4    1836       0 2228.030.561595-0.82741  0.0000
FORCE          4    1837       0 2228.840.757214-0.65317  0.0000
FORCE          4    1838       0 2330.650.757232-0.65315  0.0000
FORCE          4    1839       0 2227.820.900733-0.43437  0.0000
FORCE          4    1840       0 2228.010.982512-0.18620  0.0000
FORCE          4    1841       0 2329.770.982517-0.18617  0.0000
FORCE          4    1842       0 2228.240.9971930.074868  0.0000
FORCE          4    1843       0 2227.240.9438260.330442  0.0000
FORCE          4    1844       0 2328.960.9438190.330462  0.0000
FORCE          4    1845       0 2228.030.8263550.563150  0.0000
FORCE          4    1846       0 2228.840.6525970.757705  0.0000
FORCE          4    1847       0 2330.650.6525770.757723  0.0000
FORCE          4    1848       0 2226.650.4347560.900548  0.0000
FORCE          4    1849       0 2431.01-0.559810.828620  0.0000
FORCE          4    1850       0 2432.39-0.754840.655910  0.0000
FORCE          4    1851       0 2542.55-0.754860.655889  0.0000
FORCE          4    1852       0 2431.33-0.898610.438749  0.0000
FORCE          4    1853       0 2431.59-0.981430.191835  0.0000
FORCE          4    1854       0 2541.72-0.981430.191808  0.0000
FORCE          4    1855       0 2431.77-0.99764-0.06865  0.0000
FORCE          4    1856       0 2430.70-0.94589-0.32448  0.0000
FORCE          4    1857       0 2540.75-0.94588-0.32450  0.0000
FORCE          4    1858       0 2431.57-0.82968-0.55824  0.0000
FORCE          4    1859       0 2432.39-0.65649-0.75433  0.0000
FORCE          4    1860       0 2542.55-0.65647-0.75435  0.0000
FORCE          4    1861       0 2431.33-0.43838-0.89879  0.0000
FORCE          4    1862       0 2431.59-0.19031-0.98172  0.0000
FORCE          4    1863       0 2541.72-0.19028-0.98173  0.0000
FORCE          4    1864       0 2431.770.071247-0.99746  0.0000
FORCE          4    1865       0 2430.700.327763-0.94476  0.0000
FORCE          4    1866       0 2540.750.327784-0.94475  0.0000
FORCE          4    1867       0 2431.570.561641-0.82738  0.0000
FORCE          4    1868       0 2432.390.757250-0.65312  0.0000
FORCE          4    1869       0 2542.550.757269-0.65310  0.0000
FORCE          4    1870       0 2431.330.900752-0.43433  0.0000
FORCE          4    1871       0 2431.590.982522-0.18615  0.0000
FORCE          4    1872       0 2541.720.982527-0.18612  0.0000
FORCE          4    1873       0 2431.770.9971890.074923  0.0000
FORCE          4    1874       0 2430.700.9438120.330483  0.0000
FORCE          4    1875       0 2540.750.9438050.330503  0.0000
FORCE          4    1876       0 2431.570.8263240.563195  0.0000
FORCE          4    1877       0 2432.390.6525550.757741  0.0000
FORCE          4    1878       0 2542.550.6525340.757760  0.0000
FORCE          4    1879       0 2430.040.4347170.900567  0.0000
FORCE          4    1880       0 2651.22-0.559860.828588  0.0000
FORCE          4    1881       0 2652.62-0.754880.655866  0.0000
FORCE          4    1882       0 2761.27-0.754900.655844  0.0000
FORCE          4    1883       0 2651.53-0.898630.438709  0.0000
FORCE          4    1884       0 2651.89-0.981440.191778  0.0000
FORCE          4    1885       0 2760.54-0.981440.191749  0.0000
FORCE          4    1886       0 2652.00-0.99764-0.06871  0.0000
FORCE          4    1887       0 2650.85-0.94588-0.32452  0.0000
FORCE          4    1888       0 2759.40-0.94587-0.32454  0.0000
FORCE          4    1889       0 2651.82-0.82965-0.55829  0.0000
FORCE          4    1890       0 2652.62-0.65645-0.75437  0.0000
FORCE          4    1891       0 2761.27-0.65643-0.75439  0.0000
FORCE          4    1892       0 2651.53-0.43835-0.89881  0.0000
FORCE          4    1893       0 2651.89-0.19025-0.98174  0.0000
FORCE          4    1894       0 2760.54-0.19022-0.98174  0.0000
FORCE          4    1895       0 2652.000.071306-0.99745  0.0000
FORCE          4    1896       0 2650.850.327805-0.94475  0.0000
FORCE          4    1897       0 2759.400.327825-0.94474  0.0000
FORCE          4    1898       0 2651.820.561689-0.82735  0.0000
FORCE          4    1899       0 2652.620.757289-0.65308  0.0000
FORCE          4    1900       0 2761.270.757308-0.65306  0.0000
FORCE          4    1901       0 2651.530.900771-0.43430  0.0000
FORCE          4    1902       0 2651.890.982533-0.18609  0.0000
FORCE          4    1903       0 2760.540.982538-0.18606  0.0000
FORCE          4    1904       0 2652.000.9971850.074981  0.0000
FORCE          4    1905       0 2650.850.9437970.330524  0.0000
FORCE          4    1906       0 2759.400.9437910.330544  0.0000
FORCE          4    1907       0 2651.820.8262910.563244  0.0000
FORCE          4    1908       0 2652.620.6525110.757780  0.0000
FORCE          4    1909       0 2761.270.6524880.757799  0.0000
FORCE          4    1910       0 2650.110.4346780.900586  0.0000
FORCE          4    1911       0 2868.44-0.559910.828554  0.0000
FORCE          4    1912       0 2869.85-0.754920.655821  0.0000
FORCE          4    1913       0 2962.64-0.754930.655800  0.0000
FORCE          4    1914       0 2868.76-0.898650.438669  0.0000
FORCE          4    1915       0 2869.21-0.981450.191719  0.0000
FORCE          4    1916       0 2961.97-0.981460.191692  0.0000
FORCE          4    1917       0 2869.23-0.99763-0.06877  0.0000
FORCE          4    1918       0 2868.01-0.94586-0.32457  0.0000
FORCE          4    1919       0 2960.74-0.94586-0.32459  0.0000
FORCE          4    1920       0 2869.08-0.82961-0.55834  0.0000
FORCE          4    1921       0 2869.85-0.65640-0.75441  0.0000
FORCE          4    1922       0 2962.64-0.65638-0.75443  0.0000
FORCE          4    1923       0 2868.76-0.43831-0.89883  0.0000
FORCE          4    1924       0 2869.21-0.19019-0.98175  0.0000
FORCE          4    1925       0 2961.97-0.19017-0.98175  0.0000
FORCE          4    1926       0 2869.230.071365-0.99745  0.0000
FORCE          4    1927       0 2868.010.327847-0.94473  0.0000
FORCE          4    1928       0 2960.740.327871-0.94472  0.0000
FORCE          4    1929       0 2869.080.561739-0.82731  0.0000
FORCE          4    1930       0 2869.850.757328-0.65303  0.0000
FORCE          4    1931       0 2962.640.757346-0.65301  0.0000
FORCE          4    1932       0 2868.760.900790-0.43425  0.0000
FORCE          4    1933       0 2869.210.982544-0.18603  0.0000
FORCE          4    1934       0 2961.970.982549-0.18600  0.0000
FORCE          4    1935       0 2869.230.9971800.075041  0.0000
FORCE          4    1936       0 2868.010.9437830.330567  0.0000
FORCE          4    1937       0 2960.740.9437740.330590  0.0000
FORCE          4    1938       0 2869.080.8262570.563293  0.0000
FORCE          4    1939       0 2869.850.6524660.757818  0.0000
FORCE          4    1940       0 2962.640.6524440.757837  0.0000
FORCE          4    1941       0 2867.210.4346380.900605  0.0000
FORCE          4    1942       0 3053.90-0.559950.828524  0.0000
FORCE          4    1943       0 3055.42-0.754950.655780  0.0000
FORCE          4    1944       0 3116.14-0.754970.655763  0.0000
FORCE          4    1945       0 3054.29-0.898670.438622  0.0000
FORCE          4    1946       0 3054.76-0.981460.191666  0.0000
FORCE          4    1947       0 3115.36-0.981460.191644  0.0000
FORCE          4    1948       0 3054.75-0.99763-0.06882  0.0000
FORCE          4    1949       0 3053.47-0.94585-0.32462  0.0000
FORCE          4    1950       0 3114.19-0.94584-0.32464  0.0000
FORCE          4    1951       0 3054.60-0.82958-0.55838  0.0000
FORCE          4    1952       0 3055.42-0.65636-0.75445  0.0000
FORCE          4    1953       0 3116.14-0.65634-0.75446  0.0000
FORCE          4    1954       0 3054.29-0.43826-0.89885  0.0000
FORCE          4    1955       0 3054.76-0.19014-0.98176  0.0000
FORCE          4    1956       0 3115.36-0.19012-0.98176  0.0000
FORCE          4    1957       0 3054.750.071420-0.99745  0.0000
FORCE          4    1958       0 3053.470.327897-0.94471  0.0000
FORCE          4    1959       0 3114.190.327924-0.94470  0.0000
FORCE          4    1960       0 3054.600.561784-0.82728  0.0000
FORCE          4    1961       0 3055.420.757364-0.65299  0.0000
FORCE          4    1962       0 3116.140.757378-0.65298  0.0000
FORCE          4    1963       0 3054.290.900813-0.43421  0.0000
FORCE          4    1964       0 3054.760.982554-0.18598  0.0000
FORCE          4    1965       0 3115.360.982559-0.18595  0.0000
FORCE          4    1966       0 3054.750.9971760.075095  0.0000
FORCE          4    1967       0 3053.470.9437650.330616  0.0000
FORCE          4    1968       0 3114.190.9437560.330644  0.0000
FORCE          4    1969       0 3054.600.8262260.563338  0.0000
FORCE          4    1970       0 3055.420.6524240.757854  0.0000
FORCE          4    1971       0 3116.140.6524070.757869  0.0000
FORCE          4    1972       0 3052.630.4345900.900628  0.0000
FORCE          4    1973       0 3175.14-0.559990.828501  0.0000
FORCE          4    1974       0 3176.94-0.754980.655750  0.0000
FORCE          4    1975       0 3162.02-0.754980.655744  0.0000
FORCE          4    1976       0 3175.69-0.898700.438569  0.0000
FORCE          4    1977       0 3176.01-0.981470.191627  0.0000
FORCE          4    1978       0 3160.82-0.981470.191618  0.0000
FORCE          4    1979       0 3176.13-0.99763-0.06886  0.0000
FORCE          4    1980       0 3174.79-0.94583-0.32467  0.0000
FORCE          4    1981       0 3159.99-0.94582-0.32470  0.0000
FORCE          4    1982       0 3175.92-0.82956-0.55842  0.0000
FORCE          4    1983       0 3176.94-0.65633-0.75447  0.0000
FORCE          4    1984       0 3162.02-0.65632-0.75448  0.0000
FORCE          4    1985       0 3175.69-0.43820-0.89888  0.0000
FORCE          4    1986       0 3176.01-0.19010-0.98176  0.0000
FORCE          4    1987       0 3160.82-0.19009-0.98177  0.0000
FORCE          4    1988       0 3176.130.071460-0.99744  0.0000
FORCE          4    1989       0 3174.790.327953-0.94469  0.0000
FORCE          4    1990       0 3159.990.327983-0.94468  0.0000
FORCE          4    1991       0 3175.920.561817-0.82726  0.0000
FORCE          4    1992       0 3176.940.757390-0.65296  0.0000
FORCE          4    1993       0 3162.020.757395-0.65296  0.0000
FORCE          4    1994       0 3175.690.900839-0.43415  0.0000
FORCE          4    1995       0 3176.010.982562-0.18594  0.0000
FORCE          4    1996       0 3160.820.982563-0.18593  0.0000
FORCE          4    1997       0 3176.130.9971730.075135  0.0000
FORCE          4    1998       0 3174.790.9437460.330673  0.0000
FORCE          4    1999       0 3159.990.9437350.330702  0.0000
FORCE          4    2000       0 3175.920.8262040.563371  0.0000
FORCE          4    2001       0 3176.940.6523940.757880  0.0000
FORCE          4    2002       0 3162.020.6523880.757885  0.0000
FORCE          4    2003       0 3173.980.4345370.900654  0.0000
FORCE          4    2004       0 3145.01-0.560010.828488  0.0000
FORCE          4    2005       0 3147.30-0.754990.655732  0.0000
FORCE          4    2006       0 2975.61-0.755010.655712  0.0000
FORCE          4    2007       0 3145.78-0.898730.438498  0.0000
FORCE          4    2008       0 3145.77-0.981470.191603  0.0000
FORCE          4    2009       0 2974.02-0.981480.191577  0.0000
FORCE          4    2010       0 3146.28-0.99762-0.06889  0.0000
FORCE          4    2011       0 3144.86-0.94580-0.32475  0.0000
FORCE          4    2012       0 2973.28-0.94579-0.32479  0.0000
FORCE          4    2013       0 3145.87-0.82955-0.55844  0.0000
FORCE          4    2014       0 3147.30-0.65631-0.75449  0.0000
FORCE          4    2015       0 2975.61-0.65629-0.75451  0.0000
FORCE          4    2016       0 3145.78-0.43813-0.89891  0.0000
FORCE          4    2017       0 3145.77-0.19008-0.98177  0.0000
FORCE          4    2018       0 2974.02-0.19005-0.98177  0.0000
FORCE          4    2019       0 3146.280.071483-0.99744  0.0000
FORCE          4    2020       0 3144.860.328028-0.94467  0.0000
FORCE          4    2021       0 2973.280.328074-0.94465  0.0000
FORCE          4    2022       0 3145.870.561837-0.82725  0.0000
FORCE          4    2023       0 3147.300.757405-0.65295  0.0000
FORCE          4    2024       0 2975.610.757422-0.65293  0.0000
FORCE          4    2025       0 3145.780.900873-0.43408  0.0000
FORCE          4    2026       0 3145.770.982566-0.18591  0.0000
FORCE          4    2027       0 2974.020.982571-0.18589  0.0000
FORCE          4    2028       0 3146.280.9971720.075158  0.0000
FORCE          4    2029       0 3144.860.9437190.330747  0.0000
FORCE          4    2030       0 2973.280.9437030.330793  0.0000
FORCE          4    2031       0 3145.870.8261910.563391  0.0000
FORCE          4    2032       0 3147.300.6523770.757895  0.0000
FORCE          4    2033       0 2975.610.6523560.757912  0.0000
FORCE          4    2034       0 3144.140.4344660.900688  0.0000
FORCE          4    2035       0 2801.77-0.560070.828449  0.0000
FORCE          4    2036       0 2803.96-0.755040.655679  0.0000
FORCE          4    2037       0 2539.38-0.755070.655639  0.0000
FORCE          4    2038       0 2802.39-0.898780.438409  0.0000
FORCE          4    2039       0 2802.30-0.981490.191534  0.0000
FORCE          4    2040       0 2538.03-0.981500.191482  0.0000
FORCE          4    2041       0 2802.97-0.99762-0.06896  0.0000
FORCE          4    2042       0 2801.64-0.94577-0.32484  0.0000
FORCE          4    2043       0 2537.21-0.94575-0.32489  0.0000
FORCE          4    2044       0 2802.53-0.82951-0.55850  0.0000
FORCE          4    2045       0 2803.96-0.65626-0.75454  0.0000
FORCE          4    2046       0 2539.38-0.65622-0.75457  0.0000
FORCE          4    2047       0 2802.39-0.43804-0.89895  0.0000
FORCE          4    2048       0 2802.30-0.19001-0.98178  0.0000
FORCE          4    2049       0 2538.03-0.18995-0.98179  0.0000
FORCE          4    2050       0 2802.970.071555-0.99744  0.0000
FORCE          4    2051       0 2801.640.328122-0.94464  0.0000
FORCE          4    2052       0 2537.210.328170-0.94462  0.0000
FORCE          4    2053       0 2802.530.561896-0.82721  0.0000
FORCE          4    2054       0 2803.960.757452-0.65289  0.0000
FORCE          4    2055       0 2539.380.757486-0.65285  0.0000
FORCE          4    2056       0 2802.390.900916-0.43399  0.0000
FORCE          4    2057       0 2802.300.982579-0.18584  0.0000
FORCE          4    2058       0 2538.030.982589-0.18579  0.0000
FORCE          4    2059       0 2802.970.9971660.075229  0.0000
FORCE          4    2060       0 2801.640.9436870.330840  0.0000
FORCE          4    2061       0 2537.210.9436700.330888  0.0000
FORCE          4    2062       0 2802.530.8261510.563449  0.0000
FORCE          4    2063       0 2803.960.6523230.757941  0.0000
FORCE          4    2064       0 2539.380.6522830.757976  0.0000
FORCE          4    2065       0 2800.990.4343770.900731  0.0000
FORCE          4    2066       0 2273.13-0.560150.828393  0.0000
FORCE          4    2067       0 2274.84-0.755110.655604  0.0000
FORCE          4    2068       0 2071.97-0.755140.655568  0.0000
FORCE          4    2069       0 2273.57-0.898820.438327  0.0000
FORCE          4    2070       0 2273.55-0.981500.191437  0.0000
FORCE          4    2071       0 2070.96-0.981510.191389  0.0000
FORCE          4    2072       0 2274.06-0.99761-0.06906  0.0000
FORCE          4    2073       0 2272.98-0.94574-0.32493  0.0000
FORCE          4    2074       0 2070.24-0.94573-0.32496  0.0000
FORCE          4    2075       0 2273.73-0.82945-0.55858  0.0000
FORCE          4    2076       0 2274.84-0.65618-0.75460  0.0000
FORCE          4    2077       0 2071.97-0.65615-0.75463  0.0000
FORCE          4    2078       0 2273.57-0.43796-0.89899  0.0000
FORCE          4    2079       0 2273.55-0.18991-0.98180  0.0000
FORCE          4    2080       0 2070.96-0.18986-0.98181  0.0000
FORCE          4    2081       0 2274.060.071654-0.99743  0.0000
FORCE          4    2082       0 2272.980.328208-0.94461  0.0000
FORCE          4    2083       0 2070.240.328247-0.94459  0.0000
FORCE          4    2084       0 2273.730.561978-0.82715  0.0000
FORCE          4    2085       0 2274.840.757517-0.65282  0.0000
FORCE          4    2086       0 2071.970.757548-0.65278  0.0000
FORCE          4    2087       0 2273.570.900956-0.43391  0.0000
FORCE          4    2088       0 2273.550.982598-0.18575  0.0000
FORCE          4    2089       0 2070.960.982607-0.18570  0.0000
FORCE          4    2090       0 2274.060.9971590.075328  0.0000
FORCE          4    2091       0 2272.980.9436570.330926  0.0000
FORCE          4    2092       0 2070.240.9436430.330964  0.0000
FORCE          4    2093       0 2273.730.8260950.563531  0.0000
FORCE          4    2094       0 2274.840.6522470.758006  0.0000
FORCE          4    2095       0 2071.970.6522110.758037  0.0000
FORCE          4    2096       0 2272.440.4342950.900770  0.0000
FORCE          4    2097       0 1867.81-0.560220.828344  0.0000
FORCE          4    2098       0 1869.14-0.755160.655538  0.0000
FORCE          4    2099       0 1770.87-0.755190.655509  0.0000
FORCE          4    2100       0 1868.15-0.898850.438261  0.0000
FORCE          4    2101       0 1868.17-0.981520.191351  0.0000
FORCE          4    2102       0 1770.03-0.981530.191313  0.0000
FORCE          4    2103       0 1868.53-0.99761-0.06914  0.0000
FORCE          4    2104       0 1867.66-0.94572-0.32500  0.0000
FORCE          4    2105       0 1769.45-0.94570-0.32503  0.0000
FORCE          4    2106       0 1868.29-0.82940-0.55865  0.0000
FORCE          4    2107       0 1869.14-0.65612-0.75466  0.0000
FORCE          4    2108       0 1770.87-0.65609-0.75468  0.0000
FORCE          4    2109       0 1868.15-0.43789-0.89903  0.0000
FORCE          4    2110       0 1868.17-0.18982-0.98182  0.0000
FORCE          4    2111       0 1770.03-0.18978-0.98183  0.0000
FORCE          4    2112       0 1868.530.071742-0.99742  0.0000
FORCE          4    2113       0 1867.660.328278-0.94458  0.0000
FORCE          4    2114       0 1769.450.328310-0.94457  0.0000
FORCE          4    2115       0 1868.290.562051-0.82710  0.0000
FORCE          4    2116       0 1869.140.757574-0.65275  0.0000
FORCE          4    2117       0 1770.870.757599-0.65272  0.0000
FORCE          4    2118       0 1868.150.900988-0.43384  0.0000
FORCE          4    2119       0 1868.170.982614-0.18566  0.0000
FORCE          4    2120       0 1770.030.982621-0.18562  0.0000
FORCE          4    2121       0 1868.530.9971520.075416  0.0000
FORCE          4    2122       0 1867.660.9436320.330996  0.0000
FORCE          4    2123       0 1769.450.9436210.331027  0.0000
FORCE          4    2124       0 1868.290.8260460.563603  0.0000
FORCE          4    2125       0 1869.140.6521810.758063  0.0000
FORCE          4    2126       0 1770.870.6521520.758088  0.0000
FORCE          4    2127       0 1867.210.4342290.900802  0.0000
FORCE          4    2128       0 1629.24-0.326960.945038  0.0000
FORCE          4    2129       0 1642.46-0.326980.945033  0.0000
FORCE          4    2130       0 1631.03-0.559560.828790  0.0000
FORCE          4    2131       0 1655.69-0.326990.945027  0.0000
FORCE          4    2132       0 1682.53-0.327010.945022  0.0000
FORCE          4    2133       0 1709.39-0.327020.945016  0.0000
FORCE          4    2134       0 1750.57-0.327040.945011  0.0000
FORCE          4    2135       0 1791.77-0.327060.945005  0.0000
FORCE          4    2136       0 1848.15-0.327070.944999  0.0000
FORCE          4    2137       0 1904.57-0.327090.944993  0.0000
FORCE          4    2138       0 1976.82-0.327110.944987  0.0000
FORCE          4    2139       0 2049.13-0.327130.944980  0.0000
FORCE          4    2140       0 2137.09-0.327150.944973  0.0000
FORCE          4    2141       0 2225.12-0.327170.944966  0.0000
FORCE          4    2142       0 2326.73-0.327190.944959  0.0000
FORCE          4    2143       0 2428.43-0.327210.944952  0.0000
FORCE          4    2144       0 2538.37-0.327230.944945  0.0000
FORCE          4    2145       0 2648.43-0.327250.944938  0.0000
FORCE          4    2146       0 2756.86-0.327270.944931  0.0000
FORCE          4    2147       0 2865.42-0.327290.944923  0.0000
FORCE          4    2148       0 2958.03-0.327320.944915  0.0000
FORCE          4    2149       0 3050.70-0.327340.944906  0.0000
FORCE          4    2150       0 3111.26-0.327370.944897  0.0000
FORCE          4    2151       0 3171.78-0.327400.944887  0.0000
FORCE          4    2152       0 3156.81-0.327430.944876  0.0000
FORCE          4    2153       0 3141.61-0.327470.944861  0.0000
FORCE          4    2154       0 2970.12-0.327520.944845  0.0000
FORCE          4    2155       0 2798.57-0.327570.944829  0.0000
FORCE          4    2156       0 2534.60-0.327610.944812  0.0000
FORCE          4    2157       0 2270.53-0.327650.944799  0.0000
FORCE          4    2158       0 2068.16-0.327690.944786  0.0000
FORCE          4    2159       0 1865.70-0.327720.944775  0.0000
FORCE          4    2160       0 1767.66-0.327750.944764  0.0000
FORCE          4    2161       0 1669.59-0.327780.944754  0.0000
FORCE          4    2162       0 1671.45-0.560280.828305  0.0000
FORCE          4    2163       0 1672.61-0.755210.655484  0.0000
FORCE          4    2164       0 1671.76-0.898880.438205  0.0000
FORCE          4    2165       0 1671.80-0.981540.191281  0.0000
FORCE          4    2166       0 1672.09-0.99760-0.06922  0.0000
FORCE          4    2167       0 1671.32-0.94570-0.32506  0.0000
FORCE          4    2168       0 1671.89-0.82936-0.55871  0.0000
FORCE          4    2169       0 1672.61-0.65606-0.75470  0.0000
FORCE          4    2170       0 1671.76-0.43784-0.89905  0.0000
FORCE          4    2171       0 1671.80-0.18975-0.98183  0.0000
FORCE          4    2172       0 1672.090.071813-0.99742  0.0000
FORCE          4    2173       0 1671.320.328338-0.94456  0.0000
FORCE          4    2174       0 1671.890.562110-0.82706  0.0000
FORCE          4    2175       0 1672.610.757621-0.65270  0.0000
FORCE          4    2176       0 1671.760.901015-0.43379  0.0000
FORCE          4    2177       0 1671.800.982627-0.18559  0.0000
FORCE          4    2178       0 1672.090.9971470.075487  0.0000
FORCE          4    2179       0 1671.320.9436110.331055  0.0000
FORCE          4    2180       0 1671.890.8260050.563662  0.0000
FORCE          4    2181       0 1672.610.6521270.758109  0.0000
FORCE          4    2182       0 1670.910.4341730.900830  0.0000
FORCE          4    2183       0 1668.380.1871350.982334  0.0000
FORCE          4    2184       0 1766.340.1871670.982328  0.0000
FORCE          4    2185       0 1864.390.1872040.982321  0.0000
FORCE          4    2186       0 2066.600.1872430.982314  0.0000
FORCE          4    2187       0 2269.000.1872900.982305  0.0000
FORCE          4    2188       0 2532.740.1873360.982296  0.0000
FORCE          4    2189       0 2796.740.1873870.982286  0.0000
FORCE          4    2190       0 2967.860.1874310.982278  0.0000
FORCE          4    2191       0 3139.360.1874570.982273  0.0000
FORCE          4    2192       0 3154.160.1874720.982270  0.0000
FORCE          4    2193       0 3169.270.1874800.982268  0.0000
FORCE          4    2194       0 3108.710.1874970.982265  0.0000
FORCE          4    2195       0 3048.160.1875190.982261  0.0000
FORCE          4    2196       0 2955.660.1875450.982256  0.0000
FORCE          4    2197       0 2863.010.1875730.982251  0.0000
FORCE          4    2198       0 2754.710.1876030.982245  0.0000
FORCE          4    2199       0 2646.190.1876310.982240  0.0000
FORCE          4    2200       0 2536.400.1876610.982234  0.0000
FORCE          4    2201       0 2426.400.1876890.982229  0.0000
FORCE          4    2202       0 2324.950.1877170.982223  0.0000
FORCE          4    2203       0 2223.300.1877430.982218  0.0000
FORCE          4    2204       0 2135.480.1877690.982213  0.0000
FORCE          4    2205       0 2047.500.1877930.982209  0.0000
FORCE          4    2206       0 1975.350.1878170.982204  0.0000
FORCE          4    2207       0 1903.080.1878380.982200  0.0000
FORCE          4    2208       0 1846.790.1878600.982196  0.0000
FORCE          4    2209       0 1790.400.1878800.982192  0.0000
FORCE          4    2210       0 1749.290.1879000.982188  0.0000
FORCE          4    2211       0 1708.110.1879180.982185  0.0000
FORCE          4    2212       0 1681.310.1879360.982181  0.0000
FORCE          4    2213       0 1654.470.1879540.982178  0.0000
FORCE          4    2214       0 1641.260.1879700.982175  0.0000
FORCE          4    2215       0 1630.500.4349540.900453  0.0000
FORCE          4    2216       0 1628.040.1879860.982172  0.0000
FORCE          4    2217       0 1631.450.8264950.562945  0.0000
FORCE          4    2218       0 1632.160.6527850.757543  0.0000
FORCE          4    2219       0 1631.650.9972120.074619  0.0000
FORCE          4    2220       0 1630.900.9438990.330235  0.0000
FORCE          4    2221       0 1631.330.900637-0.43457  0.0000
FORCE          4    2222       0 1631.370.982465-0.18645  0.0000
FORCE          4    2223       0 1631.450.561388-0.82755  0.0000
FORCE          4    2224       0 1632.160.757051-0.65336  0.0000
FORCE          4    2225       0 1631.650.070943-0.99748  0.0000
FORCE          4    2226       0 1630.900.327514-0.94485  0.0000
FORCE          4    2227       0 1631.33-0.43862-0.89867  0.0000
FORCE          4    2228       0 1631.37-0.19061-0.98167  0.0000
FORCE          4    2229       0 1631.45-0.82985-0.55799  0.0000
FORCE          4    2230       0 1632.16-0.65672-0.75413  0.0000
FORCE          4    2231       0 1631.65-0.99766-0.06835  0.0000
FORCE          4    2232       0 1630.90-0.94598-0.32423  0.0000
FORCE          4    2233       0 1631.33-0.898490.438984  0.0000
FORCE          4    2234       0 1631.37-0.981370.192133  0.0000
FORCE          4    2235       0 1632.16-0.754640.656139  0.0000
LOAD         1011.0000001.000000       21.000000       31.000000       4
ENDDATA 558703fb
